$*$$$$$$$$$$$$$$$$$$$$$$$$$$$$$$$$$$$$$$$$$$$$$$$$$$$$$$$$$$$$$$$$$
$*
$*                    Simcenter v1934.0.0.2202 Translator
$*                    for Simcenter Nastran version 2020.2
$*
$*             FEM FILE: C:\Users\marcd\Desktop\PI3\Simulations\Lombaire\Lombaire_fem1.fem
$*             SIM FILE: C:\Users\marcd\Desktop\PI3\Simulations\Lombaire\Lombaire_sim1.sim
$*        ANALYSIS TYPE: Structural
$*        SOLUTION NAME: Solution 1
$*        SOLUTION TYPE: SOL 106 Nonlinear Statics - Global Constraints
$*
$*    SOLVER INPUT FILE: lombaire_sim1-solution_1.dat
$*        CREATION DATE:  3-Aug-2023
$*        CREATION TIME: 23:02:45
$*             HOSTNAME: DESKTOP-NUD6E5R
$*      NASTRAN LICENSE: Desktop Bundle
$*
$*                UNITS: mm (milli-newton)
$*                      ... LENGTH : mm
$*                      ... TIME   : sec
$*                      ... MASS   : kilogram (kg)
$*                      ... TEMPERATURE : deg Celsius
$*                      ... FORCE  : milli-newton
$*                      ... THERMAL ENERGY : mN-mm (micro-joule)
$*
$* IMPORTANT NOTE:
$*     This banner was generated by Simcenter and altering this 
$*     information may compromise the pre and post processing of results
$*
$*$$$$$$$$$$$$$$$$$$$$$$$$$$$$$$$$$$$$$$$$$$$$$$$$$$$$$$$$$$$$$$$$$
$*
$*$$$$$$$$$$$$$$$$$$$$$$$$$$$$$$$$$$$
$*
$* FILE MANAGEMENT
$*
$*$$$$$$$$$$$$$$$$$$$$$$$$$$$$$$$$$$$
$*
$*
$*$$$$$$$$$$$$$$$$$$$$$$$$$$$$$$$$$$$
$*
$* EXECUTIVE CONTROL
$*
$*$$$$$$$$$$$$$$$$$$$$$$$$$$$$$$$$$$$
$*
ID,NASTRAN,lombaire_sim1-solution_1
SOL 106
CEND
$*
$*$$$$$$$$$$$$$$$$$$$$$$$$$$$$$$$$$$$
$*
$* CASE CONTROL
$*
$*$$$$$$$$$$$$$$$$$$$$$$$$$$$$$$$$$$$
$*
ECHO = NONE
SPC = 1
NLPARM = 100
OUTPUT
DISPLACEMENT(PLOT,REAL) = ALL
SPCFORCES(PLOT,REAL) = ALL
STRESS(PLOT,REAL,VONMISES,CENTER) = ALL
$*  Step: Subcase - NL Static Loads 1
SUBCASE 1
  LABEL = Subcase - NL Static Loads 1
  LOAD = 2
$*
$*$$$$$$$$$$$$$$$$$$$$$$$$$$$$$$$$$$$
$*
$* BULK DATA
$*
$*$$$$$$$$$$$$$$$$$$$$$$$$$$$$$$$$$$$
$*
BEGIN BULK
$*
$* SOLUTION CARDS
$*
NLPARM       100          0.0000    AUTO       5      25      PW      NO+
+                                      3               40.2000000.500000+
+              5                         20.0000         20.0000
$*
$* PARAM CARDS
$*
PARAM      K6ROT100.0000
PARAM     LGDISP       1
PARAM     OIBULK     YES
PARAM    OMACHPR     YES
PARAM       POST      -2
PARAM    POSTEXT     YES
PARAM    UNITSYS   MN-MM
$*
$* GRID CARDS
$*
GRID*                  1               05.0600000000E+000.0000000000E+00+
*       1.7107000000E+02               0
GRID*                  2               0-2.840000000E+000.0000000000E+00+
*       1.3503000000E+02               0
GRID*                  3               0-9.000000000E+000.0000000000E+00+
*       9.7550000000E+01               0
GRID*                  4               0-1.011000000E+010.0000000000E+00+
*       5.8900000000E+01               0
GRID*                  5               0-6.150000000E+000.0000000000E+00+
*       2.0570000000E+01               0
GRID*                  6               0-4.060000000E+000.0000000000E+00+
*       8.7000000000E+00               0
GRID*                  7               0-4.055770833E+000.0000000000E+00+
*       8.6909375000E+00               0
GRID*                  8               0-4.051541667E+000.0000000000E+00+
*       8.6818750000E+00               0
GRID*                  9               0-4.047312500E+000.0000000000E+00+
*       8.6728125000E+00               0
GRID*                 10               0-4.043083333E+000.0000000000E+00+
*       8.6637500000E+00               0
GRID*                 11               0-4.038854167E+000.0000000000E+00+
*       8.6546875000E+00               0
GRID*                 12               0-4.034625000E+000.0000000000E+00+
*       8.6456250000E+00               0
GRID*                 13               0-4.030395833E+000.0000000000E+00+
*       8.6365625000E+00               0
GRID*                 14               0-4.026166667E+000.0000000000E+00+
*       8.6275000000E+00               0
GRID*                 15               0-4.021937500E+000.0000000000E+00+
*       8.6184375000E+00               0
GRID*                 16               0-4.017708333E+000.0000000000E+00+
*       8.6093750000E+00               0
GRID*                 17               0-4.013479167E+000.0000000000E+00+
*       8.6003125000E+00               0
GRID*                 18               0-4.009250000E+000.0000000000E+00+
*       8.5912500000E+00               0
GRID*                 19               0-4.005020833E+000.0000000000E+00+
*       8.5821875000E+00               0
GRID*                 20               0-4.000791667E+000.0000000000E+00+
*       8.5731250000E+00               0
GRID*                 21               0-3.996562500E+000.0000000000E+00+
*       8.5640625000E+00               0
GRID*                 22               0-3.992333333E+000.0000000000E+00+
*       8.5550000000E+00               0
GRID*                 23               0-3.988104167E+000.0000000000E+00+
*       8.5459375000E+00               0
GRID*                 24               0-3.983875000E+000.0000000000E+00+
*       8.5368750000E+00               0
GRID*                 25               0-3.979645833E+000.0000000000E+00+
*       8.5278125000E+00               0
GRID*                 26               0-3.975416667E+000.0000000000E+00+
*       8.5187500000E+00               0
GRID*                 27               0-3.971187500E+000.0000000000E+00+
*       8.5096875000E+00               0
GRID*                 28               0-3.966958333E+000.0000000000E+00+
*       8.5006250000E+00               0
GRID*                 29               0-3.962729167E+000.0000000000E+00+
*       8.4915625000E+00               0
GRID*                 30               0-3.958500000E+000.0000000000E+00+
*       8.4825000000E+00               0
GRID*                 31               0-3.954270833E+000.0000000000E+00+
*       8.4734375000E+00               0
GRID*                 32               0-3.950041667E+000.0000000000E+00+
*       8.4643750000E+00               0
GRID*                 33               0-3.945812500E+000.0000000000E+00+
*       8.4553125000E+00               0
GRID*                 34               0-3.941583333E+000.0000000000E+00+
*       8.4462500000E+00               0
GRID*                 35               0-3.937354167E+000.0000000000E+00+
*       8.4371875000E+00               0
GRID*                 36               0-3.933125000E+000.0000000000E+00+
*       8.4281250000E+00               0
GRID*                 37               0-3.928895833E+000.0000000000E+00+
*       8.4190625000E+00               0
GRID*                 38               0-3.924666667E+000.0000000000E+00+
*       8.4100000000E+00               0
GRID*                 39               0-3.920437500E+000.0000000000E+00+
*       8.4009375000E+00               0
GRID*                 40               0-3.916208333E+000.0000000000E+00+
*       8.3918750000E+00               0
GRID*                 41               0-3.911979167E+000.0000000000E+00+
*       8.3828125000E+00               0
GRID*                 42               0-3.907750000E+000.0000000000E+00+
*       8.3737500000E+00               0
GRID*                 43               0-3.903520833E+000.0000000000E+00+
*       8.3646875000E+00               0
GRID*                 44               0-3.899291667E+000.0000000000E+00+
*       8.3556250000E+00               0
GRID*                 45               0-3.895062500E+000.0000000000E+00+
*       8.3465625000E+00               0
GRID*                 46               0-3.890833333E+000.0000000000E+00+
*       8.3375000000E+00               0
GRID*                 47               0-3.886604167E+000.0000000000E+00+
*       8.3284375000E+00               0
GRID*                 48               0-3.882375000E+000.0000000000E+00+
*       8.3193750000E+00               0
GRID*                 49               0-3.878145833E+000.0000000000E+00+
*       8.3103125000E+00               0
GRID*                 50               0-3.873916667E+000.0000000000E+00+
*       8.3012500000E+00               0
GRID*                 51               0-3.869687500E+000.0000000000E+00+
*       8.2921875000E+00               0
GRID*                 52               0-3.865458333E+000.0000000000E+00+
*       8.2831250000E+00               0
GRID*                 53               0-3.861229167E+000.0000000000E+00+
*       8.2740625000E+00               0
GRID*                 54               0-3.857000000E+000.0000000000E+00+
*       8.2650000000E+00               0
GRID*                 55               0-3.852770833E+000.0000000000E+00+
*       8.2559375000E+00               0
GRID*                 56               0-3.848541667E+000.0000000000E+00+
*       8.2468750000E+00               0
GRID*                 57               0-3.844312500E+000.0000000000E+00+
*       8.2378125000E+00               0
GRID*                 58               0-3.840083333E+000.0000000000E+00+
*       8.2287500000E+00               0
GRID*                 59               0-3.835854167E+000.0000000000E+00+
*       8.2196875000E+00               0
GRID*                 60               0-3.831625000E+000.0000000000E+00+
*       8.2106250000E+00               0
GRID*                 61               0-3.827395833E+000.0000000000E+00+
*       8.2015625000E+00               0
GRID*                 62               0-3.823166667E+000.0000000000E+00+
*       8.1925000000E+00               0
GRID*                 63               0-3.818937500E+000.0000000000E+00+
*       8.1834375000E+00               0
GRID*                 64               0-3.814708333E+000.0000000000E+00+
*       8.1743750000E+00               0
GRID*                 65               0-3.810479167E+000.0000000000E+00+
*       8.1653125000E+00               0
GRID*                 66               0-3.806250000E+000.0000000000E+00+
*       8.1562500000E+00               0
GRID*                 67               0-3.802020833E+000.0000000000E+00+
*       8.1471875000E+00               0
GRID*                 68               0-3.797791667E+000.0000000000E+00+
*       8.1381250000E+00               0
GRID*                 69               0-3.793562500E+000.0000000000E+00+
*       8.1290625000E+00               0
GRID*                 70               0-3.789333333E+000.0000000000E+00+
*       8.1200000000E+00               0
GRID*                 71               0-3.785104167E+000.0000000000E+00+
*       8.1109375000E+00               0
GRID*                 72               0-3.780875000E+000.0000000000E+00+
*       8.1018750000E+00               0
GRID*                 73               0-3.776645833E+000.0000000000E+00+
*       8.0928125000E+00               0
GRID*                 74               0-3.772416667E+000.0000000000E+00+
*       8.0837500000E+00               0
GRID*                 75               0-3.768187500E+000.0000000000E+00+
*       8.0746875000E+00               0
GRID*                 76               0-3.763958333E+000.0000000000E+00+
*       8.0656250000E+00               0
GRID*                 77               0-3.759729167E+000.0000000000E+00+
*       8.0565625000E+00               0
GRID*                 78               0-3.755500000E+000.0000000000E+00+
*       8.0475000000E+00               0
GRID*                 79               0-3.751270833E+000.0000000000E+00+
*       8.0384375000E+00               0
GRID*                 80               0-3.747041667E+000.0000000000E+00+
*       8.0293750000E+00               0
GRID*                 81               0-3.742812500E+000.0000000000E+00+
*       8.0203125000E+00               0
GRID*                 82               0-3.738583333E+000.0000000000E+00+
*       8.0112500000E+00               0
GRID*                 83               0-3.734354167E+000.0000000000E+00+
*       8.0021875000E+00               0
GRID*                 84               0-3.730125000E+000.0000000000E+00+
*       7.9931250000E+00               0
GRID*                 85               0-3.725895833E+000.0000000000E+00+
*       7.9840625000E+00               0
GRID*                 86               0-3.721666667E+000.0000000000E+00+
*       7.9750000000E+00               0
GRID*                 87               0-3.717437500E+000.0000000000E+00+
*       7.9659375000E+00               0
GRID*                 88               0-3.713208333E+000.0000000000E+00+
*       7.9568750000E+00               0
GRID*                 89               0-3.708979167E+000.0000000000E+00+
*       7.9478125000E+00               0
GRID*                 90               0-3.704750000E+000.0000000000E+00+
*       7.9387500000E+00               0
GRID*                 91               0-3.700520833E+000.0000000000E+00+
*       7.9296875000E+00               0
GRID*                 92               0-3.696291667E+000.0000000000E+00+
*       7.9206250000E+00               0
GRID*                 93               0-3.692062500E+000.0000000000E+00+
*       7.9115625000E+00               0
GRID*                 94               0-3.687833333E+000.0000000000E+00+
*       7.9025000000E+00               0
GRID*                 95               0-3.683604167E+000.0000000000E+00+
*       7.8934375000E+00               0
GRID*                 96               0-3.679375000E+000.0000000000E+00+
*       7.8843750000E+00               0
GRID*                 97               0-3.675145833E+000.0000000000E+00+
*       7.8753125000E+00               0
GRID*                 98               0-3.670916667E+000.0000000000E+00+
*       7.8662500000E+00               0
GRID*                 99               0-3.666687500E+000.0000000000E+00+
*       7.8571875000E+00               0
GRID*                100               0-3.662458333E+000.0000000000E+00+
*       7.8481250000E+00               0
GRID*                101               0-3.658229167E+000.0000000000E+00+
*       7.8390625000E+00               0
GRID*                102               0-3.654000000E+000.0000000000E+00+
*       7.8300000000E+00               0
GRID*                103               0-3.649770833E+000.0000000000E+00+
*       7.8209375000E+00               0
GRID*                104               0-3.645541667E+000.0000000000E+00+
*       7.8118750000E+00               0
GRID*                105               0-3.641312500E+000.0000000000E+00+
*       7.8028125000E+00               0
GRID*                106               0-3.637083333E+000.0000000000E+00+
*       7.7937500000E+00               0
GRID*                107               0-3.632854167E+000.0000000000E+00+
*       7.7846875000E+00               0
GRID*                108               0-3.628625000E+000.0000000000E+00+
*       7.7756250000E+00               0
GRID*                109               0-3.624395833E+000.0000000000E+00+
*       7.7665625000E+00               0
GRID*                110               0-3.620166667E+000.0000000000E+00+
*       7.7575000000E+00               0
GRID*                111               0-3.615937500E+000.0000000000E+00+
*       7.7484375000E+00               0
GRID*                112               0-3.611708333E+000.0000000000E+00+
*       7.7393750000E+00               0
GRID*                113               0-3.607479167E+000.0000000000E+00+
*       7.7303125000E+00               0
GRID*                114               0-3.603250000E+000.0000000000E+00+
*       7.7212500000E+00               0
GRID*                115               0-3.599020833E+000.0000000000E+00+
*       7.7121875000E+00               0
GRID*                116               0-3.594791667E+000.0000000000E+00+
*       7.7031250000E+00               0
GRID*                117               0-3.590562500E+000.0000000000E+00+
*       7.6940625000E+00               0
GRID*                118               0-3.586333333E+000.0000000000E+00+
*       7.6850000000E+00               0
GRID*                119               0-3.582104167E+000.0000000000E+00+
*       7.6759375000E+00               0
GRID*                120               0-3.577875000E+000.0000000000E+00+
*       7.6668750000E+00               0
GRID*                121               0-3.573645833E+000.0000000000E+00+
*       7.6578125000E+00               0
GRID*                122               0-3.569416667E+000.0000000000E+00+
*       7.6487500000E+00               0
GRID*                123               0-3.565187500E+000.0000000000E+00+
*       7.6396875000E+00               0
GRID*                124               0-3.560958333E+000.0000000000E+00+
*       7.6306250000E+00               0
GRID*                125               0-3.556729167E+000.0000000000E+00+
*       7.6215625000E+00               0
GRID*                126               0-3.552500000E+000.0000000000E+00+
*       7.6125000000E+00               0
GRID*                127               0-3.548270833E+000.0000000000E+00+
*       7.6034375000E+00               0
GRID*                128               0-3.544041667E+000.0000000000E+00+
*       7.5943750000E+00               0
GRID*                129               0-3.539812500E+000.0000000000E+00+
*       7.5853125000E+00               0
GRID*                130               0-3.535583333E+000.0000000000E+00+
*       7.5762500000E+00               0
GRID*                131               0-3.531354167E+000.0000000000E+00+
*       7.5671875000E+00               0
GRID*                132               0-3.527125000E+000.0000000000E+00+
*       7.5581250000E+00               0
GRID*                133               0-3.522895833E+000.0000000000E+00+
*       7.5490625000E+00               0
GRID*                134               0-3.518666667E+000.0000000000E+00+
*       7.5400000000E+00               0
GRID*                135               0-3.514437500E+000.0000000000E+00+
*       7.5309375000E+00               0
GRID*                136               0-3.510208333E+000.0000000000E+00+
*       7.5218750000E+00               0
GRID*                137               0-3.505979167E+000.0000000000E+00+
*       7.5128125000E+00               0
GRID*                138               0-3.501750000E+000.0000000000E+00+
*       7.5037500000E+00               0
GRID*                139               0-3.497520833E+000.0000000000E+00+
*       7.4946875000E+00               0
GRID*                140               0-3.493291667E+000.0000000000E+00+
*       7.4856250000E+00               0
GRID*                141               0-3.489062500E+000.0000000000E+00+
*       7.4765625000E+00               0
GRID*                142               0-3.484833333E+000.0000000000E+00+
*       7.4675000000E+00               0
GRID*                143               0-3.480604167E+000.0000000000E+00+
*       7.4584375000E+00               0
GRID*                144               0-3.476375000E+000.0000000000E+00+
*       7.4493750000E+00               0
GRID*                145               0-3.472145833E+000.0000000000E+00+
*       7.4403125000E+00               0
GRID*                146               0-3.467916667E+000.0000000000E+00+
*       7.4312500000E+00               0
GRID*                147               0-3.463687500E+000.0000000000E+00+
*       7.4221875000E+00               0
GRID*                148               0-3.459458333E+000.0000000000E+00+
*       7.4131250000E+00               0
GRID*                149               0-3.455229167E+000.0000000000E+00+
*       7.4040625000E+00               0
GRID*                150               0-3.451000000E+000.0000000000E+00+
*       7.3950000000E+00               0
GRID*                151               0-3.446770833E+000.0000000000E+00+
*       7.3859375000E+00               0
GRID*                152               0-3.442541667E+000.0000000000E+00+
*       7.3768750000E+00               0
GRID*                153               0-3.438312500E+000.0000000000E+00+
*       7.3678125000E+00               0
GRID*                154               0-3.434083333E+000.0000000000E+00+
*       7.3587500000E+00               0
GRID*                155               0-3.429854167E+000.0000000000E+00+
*       7.3496875000E+00               0
GRID*                156               0-3.425625000E+000.0000000000E+00+
*       7.3406250000E+00               0
GRID*                157               0-3.421395833E+000.0000000000E+00+
*       7.3315625000E+00               0
GRID*                158               0-3.417166667E+000.0000000000E+00+
*       7.3225000000E+00               0
GRID*                159               0-3.412937500E+000.0000000000E+00+
*       7.3134375000E+00               0
GRID*                160               0-3.408708333E+000.0000000000E+00+
*       7.3043750000E+00               0
GRID*                161               0-3.404479167E+000.0000000000E+00+
*       7.2953125000E+00               0
GRID*                162               0-3.400250000E+000.0000000000E+00+
*       7.2862500000E+00               0
GRID*                163               0-3.396020833E+000.0000000000E+00+
*       7.2771875000E+00               0
GRID*                164               0-3.391791667E+000.0000000000E+00+
*       7.2681250000E+00               0
GRID*                165               0-3.387562500E+000.0000000000E+00+
*       7.2590625000E+00               0
GRID*                166               0-3.383333333E+000.0000000000E+00+
*       7.2500000000E+00               0
GRID*                167               0-3.379104167E+000.0000000000E+00+
*       7.2409375000E+00               0
GRID*                168               0-3.374875000E+000.0000000000E+00+
*       7.2318750000E+00               0
GRID*                169               0-3.370645833E+000.0000000000E+00+
*       7.2228125000E+00               0
GRID*                170               0-3.366416667E+000.0000000000E+00+
*       7.2137500000E+00               0
GRID*                171               0-3.362187500E+000.0000000000E+00+
*       7.2046875000E+00               0
GRID*                172               0-3.357958333E+000.0000000000E+00+
*       7.1956250000E+00               0
GRID*                173               0-3.353729167E+000.0000000000E+00+
*       7.1865625000E+00               0
GRID*                174               0-3.349500000E+000.0000000000E+00+
*       7.1775000000E+00               0
GRID*                175               0-3.345270833E+000.0000000000E+00+
*       7.1684375000E+00               0
GRID*                176               0-3.341041667E+000.0000000000E+00+
*       7.1593750000E+00               0
GRID*                177               0-3.336812500E+000.0000000000E+00+
*       7.1503125000E+00               0
GRID*                178               0-3.332583333E+000.0000000000E+00+
*       7.1412500000E+00               0
GRID*                179               0-3.328354167E+000.0000000000E+00+
*       7.1321875000E+00               0
GRID*                180               0-3.324125000E+000.0000000000E+00+
*       7.1231250000E+00               0
GRID*                181               0-3.319895833E+000.0000000000E+00+
*       7.1140625000E+00               0
GRID*                182               0-3.315666667E+000.0000000000E+00+
*       7.1050000000E+00               0
GRID*                183               0-3.311437500E+000.0000000000E+00+
*       7.0959375000E+00               0
GRID*                184               0-3.307208333E+000.0000000000E+00+
*       7.0868750000E+00               0
GRID*                185               0-3.302979167E+000.0000000000E+00+
*       7.0778125000E+00               0
GRID*                186               0-3.298750000E+000.0000000000E+00+
*       7.0687500000E+00               0
GRID*                187               0-3.294520833E+000.0000000000E+00+
*       7.0596875000E+00               0
GRID*                188               0-3.290291667E+000.0000000000E+00+
*       7.0506250000E+00               0
GRID*                189               0-3.286062500E+000.0000000000E+00+
*       7.0415625000E+00               0
GRID*                190               0-3.281833333E+000.0000000000E+00+
*       7.0325000000E+00               0
GRID*                191               0-3.277604167E+000.0000000000E+00+
*       7.0234375000E+00               0
GRID*                192               0-3.273375000E+000.0000000000E+00+
*       7.0143750000E+00               0
GRID*                193               0-3.269145833E+000.0000000000E+00+
*       7.0053125000E+00               0
GRID*                194               0-3.264916667E+000.0000000000E+00+
*       6.9962500000E+00               0
GRID*                195               0-3.260687500E+000.0000000000E+00+
*       6.9871875000E+00               0
GRID*                196               0-3.256458333E+000.0000000000E+00+
*       6.9781250000E+00               0
GRID*                197               0-3.252229167E+000.0000000000E+00+
*       6.9690625000E+00               0
GRID*                198               0-3.248000000E+000.0000000000E+00+
*       6.9600000000E+00               0
GRID*                199               0-3.243770833E+000.0000000000E+00+
*       6.9509375000E+00               0
GRID*                200               0-3.239541667E+000.0000000000E+00+
*       6.9418750000E+00               0
GRID*                201               0-3.235312500E+000.0000000000E+00+
*       6.9328125000E+00               0
GRID*                202               0-3.231083333E+000.0000000000E+00+
*       6.9237500000E+00               0
GRID*                203               0-3.226854167E+000.0000000000E+00+
*       6.9146875000E+00               0
GRID*                204               0-3.222625000E+000.0000000000E+00+
*       6.9056250000E+00               0
GRID*                205               0-3.218395833E+000.0000000000E+00+
*       6.8965625000E+00               0
GRID*                206               0-3.214166667E+000.0000000000E+00+
*       6.8875000000E+00               0
GRID*                207               0-3.209937500E+000.0000000000E+00+
*       6.8784375000E+00               0
GRID*                208               0-3.205708333E+000.0000000000E+00+
*       6.8693750000E+00               0
GRID*                209               0-3.201479167E+000.0000000000E+00+
*       6.8603125000E+00               0
GRID*                210               0-3.197250000E+000.0000000000E+00+
*       6.8512500000E+00               0
GRID*                211               0-3.193020833E+000.0000000000E+00+
*       6.8421875000E+00               0
GRID*                212               0-3.188791667E+000.0000000000E+00+
*       6.8331250000E+00               0
GRID*                213               0-3.184562500E+000.0000000000E+00+
*       6.8240625000E+00               0
GRID*                214               0-3.180333333E+000.0000000000E+00+
*       6.8150000000E+00               0
GRID*                215               0-3.176104167E+000.0000000000E+00+
*       6.8059375000E+00               0
GRID*                216               0-3.171875000E+000.0000000000E+00+
*       6.7968750000E+00               0
GRID*                217               0-3.167645833E+000.0000000000E+00+
*       6.7878125000E+00               0
GRID*                218               0-3.163416667E+000.0000000000E+00+
*       6.7787500000E+00               0
GRID*                219               0-3.159187500E+000.0000000000E+00+
*       6.7696875000E+00               0
GRID*                220               0-3.154958333E+000.0000000000E+00+
*       6.7606250000E+00               0
GRID*                221               0-3.150729167E+000.0000000000E+00+
*       6.7515625000E+00               0
GRID*                222               0-3.146500000E+000.0000000000E+00+
*       6.7425000000E+00               0
GRID*                223               0-3.142270833E+000.0000000000E+00+
*       6.7334375000E+00               0
GRID*                224               0-3.138041667E+000.0000000000E+00+
*       6.7243750000E+00               0
GRID*                225               0-3.133812500E+000.0000000000E+00+
*       6.7153125000E+00               0
GRID*                226               0-3.129583333E+000.0000000000E+00+
*       6.7062500000E+00               0
GRID*                227               0-3.125354167E+000.0000000000E+00+
*       6.6971875000E+00               0
GRID*                228               0-3.121125000E+000.0000000000E+00+
*       6.6881250000E+00               0
GRID*                229               0-3.116895833E+000.0000000000E+00+
*       6.6790625000E+00               0
GRID*                230               0-3.112666667E+000.0000000000E+00+
*       6.6700000000E+00               0
GRID*                231               0-3.108437500E+000.0000000000E+00+
*       6.6609375000E+00               0
GRID*                232               0-3.104208333E+000.0000000000E+00+
*       6.6518750000E+00               0
GRID*                233               0-3.099979167E+000.0000000000E+00+
*       6.6428125000E+00               0
GRID*                234               0-3.095750000E+000.0000000000E+00+
*       6.6337500000E+00               0
GRID*                235               0-3.091520833E+000.0000000000E+00+
*       6.6246875000E+00               0
GRID*                236               0-3.087291667E+000.0000000000E+00+
*       6.6156250000E+00               0
GRID*                237               0-3.083062500E+000.0000000000E+00+
*       6.6065625000E+00               0
GRID*                238               0-3.078833333E+000.0000000000E+00+
*       6.5975000000E+00               0
GRID*                239               0-3.074604167E+000.0000000000E+00+
*       6.5884375000E+00               0
GRID*                240               0-3.070375000E+000.0000000000E+00+
*       6.5793750000E+00               0
GRID*                241               0-3.066145833E+000.0000000000E+00+
*       6.5703125000E+00               0
GRID*                242               0-3.061916667E+000.0000000000E+00+
*       6.5612500000E+00               0
GRID*                243               0-3.057687500E+000.0000000000E+00+
*       6.5521875000E+00               0
GRID*                244               0-3.053458333E+000.0000000000E+00+
*       6.5431250000E+00               0
GRID*                245               0-3.049229167E+000.0000000000E+00+
*       6.5340625000E+00               0
GRID*                246               0-3.045000000E+000.0000000000E+00+
*       6.5250000000E+00               0
GRID*                247               0-3.040770833E+000.0000000000E+00+
*       6.5159375000E+00               0
GRID*                248               0-3.036541667E+000.0000000000E+00+
*       6.5068750000E+00               0
GRID*                249               0-3.032312500E+000.0000000000E+00+
*       6.4978125000E+00               0
GRID*                250               0-3.028083333E+000.0000000000E+00+
*       6.4887500000E+00               0
GRID*                251               0-3.023854167E+000.0000000000E+00+
*       6.4796875000E+00               0
GRID*                252               0-3.019625000E+000.0000000000E+00+
*       6.4706250000E+00               0
GRID*                253               0-3.015395833E+000.0000000000E+00+
*       6.4615625000E+00               0
GRID*                254               0-3.011166667E+000.0000000000E+00+
*       6.4525000000E+00               0
GRID*                255               0-3.006937500E+000.0000000000E+00+
*       6.4434375000E+00               0
GRID*                256               0-3.002708333E+000.0000000000E+00+
*       6.4343750000E+00               0
GRID*                257               0-2.998479167E+000.0000000000E+00+
*       6.4253125000E+00               0
GRID*                258               0-2.994250000E+000.0000000000E+00+
*       6.4162500000E+00               0
GRID*                259               0-2.990020833E+000.0000000000E+00+
*       6.4071875000E+00               0
GRID*                260               0-2.985791667E+000.0000000000E+00+
*       6.3981250000E+00               0
GRID*                261               0-2.981562500E+000.0000000000E+00+
*       6.3890625000E+00               0
GRID*                262               0-2.977333333E+000.0000000000E+00+
*       6.3800000000E+00               0
GRID*                263               0-2.973104167E+000.0000000000E+00+
*       6.3709375000E+00               0
GRID*                264               0-2.968875000E+000.0000000000E+00+
*       6.3618750000E+00               0
GRID*                265               0-2.964645833E+000.0000000000E+00+
*       6.3528125000E+00               0
GRID*                266               0-2.960416667E+000.0000000000E+00+
*       6.3437500000E+00               0
GRID*                267               0-2.956187500E+000.0000000000E+00+
*       6.3346875000E+00               0
GRID*                268               0-2.951958333E+000.0000000000E+00+
*       6.3256250000E+00               0
GRID*                269               0-2.947729167E+000.0000000000E+00+
*       6.3165625000E+00               0
GRID*                270               0-2.943500000E+000.0000000000E+00+
*       6.3075000000E+00               0
GRID*                271               0-2.939270833E+000.0000000000E+00+
*       6.2984375000E+00               0
GRID*                272               0-2.935041667E+000.0000000000E+00+
*       6.2893750000E+00               0
GRID*                273               0-2.930812500E+000.0000000000E+00+
*       6.2803125000E+00               0
GRID*                274               0-2.926583333E+000.0000000000E+00+
*       6.2712500000E+00               0
GRID*                275               0-2.922354167E+000.0000000000E+00+
*       6.2621875000E+00               0
GRID*                276               0-2.918125000E+000.0000000000E+00+
*       6.2531250000E+00               0
GRID*                277               0-2.913895833E+000.0000000000E+00+
*       6.2440625000E+00               0
GRID*                278               0-2.909666667E+000.0000000000E+00+
*       6.2350000000E+00               0
GRID*                279               0-2.905437500E+000.0000000000E+00+
*       6.2259375000E+00               0
GRID*                280               0-2.901208333E+000.0000000000E+00+
*       6.2168750000E+00               0
GRID*                281               0-2.896979167E+000.0000000000E+00+
*       6.2078125000E+00               0
GRID*                282               0-2.892750000E+000.0000000000E+00+
*       6.1987500000E+00               0
GRID*                283               0-2.888520833E+000.0000000000E+00+
*       6.1896875000E+00               0
GRID*                284               0-2.884291667E+000.0000000000E+00+
*       6.1806250000E+00               0
GRID*                285               0-2.880062500E+000.0000000000E+00+
*       6.1715625000E+00               0
GRID*                286               0-2.875833333E+000.0000000000E+00+
*       6.1625000000E+00               0
GRID*                287               0-2.871604167E+000.0000000000E+00+
*       6.1534375000E+00               0
GRID*                288               0-2.867375000E+000.0000000000E+00+
*       6.1443750000E+00               0
GRID*                289               0-2.863145833E+000.0000000000E+00+
*       6.1353125000E+00               0
GRID*                290               0-2.858916667E+000.0000000000E+00+
*       6.1262500000E+00               0
GRID*                291               0-2.854687500E+000.0000000000E+00+
*       6.1171875000E+00               0
GRID*                292               0-2.850458333E+000.0000000000E+00+
*       6.1081250000E+00               0
GRID*                293               0-2.846229167E+000.0000000000E+00+
*       6.0990625000E+00               0
GRID*                294               0-2.842000000E+000.0000000000E+00+
*       6.0900000000E+00               0
GRID*                295               0-2.837770833E+000.0000000000E+00+
*       6.0809375000E+00               0
GRID*                296               0-2.833541667E+000.0000000000E+00+
*       6.0718750000E+00               0
GRID*                297               0-2.829312500E+000.0000000000E+00+
*       6.0628125000E+00               0
GRID*                298               0-2.825083333E+000.0000000000E+00+
*       6.0537500000E+00               0
GRID*                299               0-2.820854167E+000.0000000000E+00+
*       6.0446875000E+00               0
GRID*                300               0-2.816625000E+000.0000000000E+00+
*       6.0356250000E+00               0
GRID*                301               0-2.812395833E+000.0000000000E+00+
*       6.0265625000E+00               0
GRID*                302               0-2.808166667E+000.0000000000E+00+
*       6.0175000000E+00               0
GRID*                303               0-2.803937500E+000.0000000000E+00+
*       6.0084375000E+00               0
GRID*                304               0-2.799708333E+000.0000000000E+00+
*       5.9993750000E+00               0
GRID*                305               0-2.795479167E+000.0000000000E+00+
*       5.9903125000E+00               0
GRID*                306               0-2.791250000E+000.0000000000E+00+
*       5.9812500000E+00               0
GRID*                307               0-2.787020833E+000.0000000000E+00+
*       5.9721875000E+00               0
GRID*                308               0-2.782791667E+000.0000000000E+00+
*       5.9631250000E+00               0
GRID*                309               0-2.778562500E+000.0000000000E+00+
*       5.9540625000E+00               0
GRID*                310               0-2.774333333E+000.0000000000E+00+
*       5.9450000000E+00               0
GRID*                311               0-2.770104167E+000.0000000000E+00+
*       5.9359375000E+00               0
GRID*                312               0-2.765875000E+000.0000000000E+00+
*       5.9268750000E+00               0
GRID*                313               0-2.761645833E+000.0000000000E+00+
*       5.9178125000E+00               0
GRID*                314               0-2.757416667E+000.0000000000E+00+
*       5.9087500000E+00               0
GRID*                315               0-2.753187500E+000.0000000000E+00+
*       5.8996875000E+00               0
GRID*                316               0-2.748958333E+000.0000000000E+00+
*       5.8906250000E+00               0
GRID*                317               0-2.744729167E+000.0000000000E+00+
*       5.8815625000E+00               0
GRID*                318               0-2.740500000E+000.0000000000E+00+
*       5.8725000000E+00               0
GRID*                319               0-2.736270833E+000.0000000000E+00+
*       5.8634375000E+00               0
GRID*                320               0-2.732041667E+000.0000000000E+00+
*       5.8543750000E+00               0
GRID*                321               0-2.727812500E+000.0000000000E+00+
*       5.8453125000E+00               0
GRID*                322               0-2.723583333E+000.0000000000E+00+
*       5.8362500000E+00               0
GRID*                323               0-2.719354167E+000.0000000000E+00+
*       5.8271875000E+00               0
GRID*                324               0-2.715125000E+000.0000000000E+00+
*       5.8181250000E+00               0
GRID*                325               0-2.710895833E+000.0000000000E+00+
*       5.8090625000E+00               0
GRID*                326               0-2.706666667E+000.0000000000E+00+
*       5.8000000000E+00               0
GRID*                327               0-2.702437500E+000.0000000000E+00+
*       5.7909375000E+00               0
GRID*                328               0-2.698208333E+000.0000000000E+00+
*       5.7818750000E+00               0
GRID*                329               0-2.693979167E+000.0000000000E+00+
*       5.7728125000E+00               0
GRID*                330               0-2.689750000E+000.0000000000E+00+
*       5.7637500000E+00               0
GRID*                331               0-2.685520833E+000.0000000000E+00+
*       5.7546875000E+00               0
GRID*                332               0-2.681291667E+000.0000000000E+00+
*       5.7456250000E+00               0
GRID*                333               0-2.677062500E+000.0000000000E+00+
*       5.7365625000E+00               0
GRID*                334               0-2.672833333E+000.0000000000E+00+
*       5.7275000000E+00               0
GRID*                335               0-2.668604167E+000.0000000000E+00+
*       5.7184375000E+00               0
GRID*                336               0-2.664375000E+000.0000000000E+00+
*       5.7093750000E+00               0
GRID*                337               0-2.660145833E+000.0000000000E+00+
*       5.7003125000E+00               0
GRID*                338               0-2.655916667E+000.0000000000E+00+
*       5.6912500000E+00               0
GRID*                339               0-2.651687500E+000.0000000000E+00+
*       5.6821875000E+00               0
GRID*                340               0-2.647458333E+000.0000000000E+00+
*       5.6731250000E+00               0
GRID*                341               0-2.643229167E+000.0000000000E+00+
*       5.6640625000E+00               0
GRID*                342               0-2.639000000E+000.0000000000E+00+
*       5.6550000000E+00               0
GRID*                343               0-2.634770833E+000.0000000000E+00+
*       5.6459375000E+00               0
GRID*                344               0-2.630541667E+000.0000000000E+00+
*       5.6368750000E+00               0
GRID*                345               0-2.626312500E+000.0000000000E+00+
*       5.6278125000E+00               0
GRID*                346               0-2.622083333E+000.0000000000E+00+
*       5.6187500000E+00               0
GRID*                347               0-2.617854167E+000.0000000000E+00+
*       5.6096875000E+00               0
GRID*                348               0-2.613625000E+000.0000000000E+00+
*       5.6006250000E+00               0
GRID*                349               0-2.609395833E+000.0000000000E+00+
*       5.5915625000E+00               0
GRID*                350               0-2.605166667E+000.0000000000E+00+
*       5.5825000000E+00               0
GRID*                351               0-2.600937500E+000.0000000000E+00+
*       5.5734375000E+00               0
GRID*                352               0-2.596708333E+000.0000000000E+00+
*       5.5643750000E+00               0
GRID*                353               0-2.592479167E+000.0000000000E+00+
*       5.5553125000E+00               0
GRID*                354               0-2.588250000E+000.0000000000E+00+
*       5.5462500000E+00               0
GRID*                355               0-2.584020833E+000.0000000000E+00+
*       5.5371875000E+00               0
GRID*                356               0-2.579791667E+000.0000000000E+00+
*       5.5281250000E+00               0
GRID*                357               0-2.575562500E+000.0000000000E+00+
*       5.5190625000E+00               0
GRID*                358               0-2.571333333E+000.0000000000E+00+
*       5.5100000000E+00               0
GRID*                359               0-2.567104167E+000.0000000000E+00+
*       5.5009375000E+00               0
GRID*                360               0-2.562875000E+000.0000000000E+00+
*       5.4918750000E+00               0
GRID*                361               0-2.558645833E+000.0000000000E+00+
*       5.4828125000E+00               0
GRID*                362               0-2.554416667E+000.0000000000E+00+
*       5.4737500000E+00               0
GRID*                363               0-2.550187500E+000.0000000000E+00+
*       5.4646875000E+00               0
GRID*                364               0-2.545958333E+000.0000000000E+00+
*       5.4556250000E+00               0
GRID*                365               0-2.541729167E+000.0000000000E+00+
*       5.4465625000E+00               0
GRID*                366               0-2.537500000E+000.0000000000E+00+
*       5.4375000000E+00               0
GRID*                367               0-2.533270833E+000.0000000000E+00+
*       5.4284375000E+00               0
GRID*                368               0-2.529041667E+000.0000000000E+00+
*       5.4193750000E+00               0
GRID*                369               0-2.524812500E+000.0000000000E+00+
*       5.4103125000E+00               0
GRID*                370               0-2.520583333E+000.0000000000E+00+
*       5.4012500000E+00               0
GRID*                371               0-2.516354167E+000.0000000000E+00+
*       5.3921875000E+00               0
GRID*                372               0-2.512125000E+000.0000000000E+00+
*       5.3831250000E+00               0
GRID*                373               0-2.507895833E+000.0000000000E+00+
*       5.3740625000E+00               0
GRID*                374               0-2.503666667E+000.0000000000E+00+
*       5.3650000000E+00               0
GRID*                375               0-2.499437500E+000.0000000000E+00+
*       5.3559375000E+00               0
GRID*                376               0-2.495208333E+000.0000000000E+00+
*       5.3468750000E+00               0
GRID*                377               0-2.490979167E+000.0000000000E+00+
*       5.3378125000E+00               0
GRID*                378               0-2.486750000E+000.0000000000E+00+
*       5.3287500000E+00               0
GRID*                379               0-2.482520833E+000.0000000000E+00+
*       5.3196875000E+00               0
GRID*                380               0-2.478291667E+000.0000000000E+00+
*       5.3106250000E+00               0
GRID*                381               0-2.474062500E+000.0000000000E+00+
*       5.3015625000E+00               0
GRID*                382               0-2.469833333E+000.0000000000E+00+
*       5.2925000000E+00               0
GRID*                383               0-2.465604167E+000.0000000000E+00+
*       5.2834375000E+00               0
GRID*                384               0-2.461375000E+000.0000000000E+00+
*       5.2743750000E+00               0
GRID*                385               0-2.457145833E+000.0000000000E+00+
*       5.2653125000E+00               0
GRID*                386               0-2.452916667E+000.0000000000E+00+
*       5.2562500000E+00               0
GRID*                387               0-2.448687500E+000.0000000000E+00+
*       5.2471875000E+00               0
GRID*                388               0-2.444458333E+000.0000000000E+00+
*       5.2381250000E+00               0
GRID*                389               0-2.440229167E+000.0000000000E+00+
*       5.2290625000E+00               0
GRID*                390               0-2.436000000E+000.0000000000E+00+
*       5.2200000000E+00               0
GRID*                391               0-2.431770833E+000.0000000000E+00+
*       5.2109375000E+00               0
GRID*                392               0-2.427541667E+000.0000000000E+00+
*       5.2018750000E+00               0
GRID*                393               0-2.423312500E+000.0000000000E+00+
*       5.1928125000E+00               0
GRID*                394               0-2.419083333E+000.0000000000E+00+
*       5.1837500000E+00               0
GRID*                395               0-2.414854167E+000.0000000000E+00+
*       5.1746875000E+00               0
GRID*                396               0-2.410625000E+000.0000000000E+00+
*       5.1656250000E+00               0
GRID*                397               0-2.406395833E+000.0000000000E+00+
*       5.1565625000E+00               0
GRID*                398               0-2.402166667E+000.0000000000E+00+
*       5.1475000000E+00               0
GRID*                399               0-2.397937500E+000.0000000000E+00+
*       5.1384375000E+00               0
GRID*                400               0-2.393708333E+000.0000000000E+00+
*       5.1293750000E+00               0
GRID*                401               0-2.389479167E+000.0000000000E+00+
*       5.1203125000E+00               0
GRID*                402               0-2.385250000E+000.0000000000E+00+
*       5.1112500000E+00               0
GRID*                403               0-2.381020833E+000.0000000000E+00+
*       5.1021875000E+00               0
GRID*                404               0-2.376791667E+000.0000000000E+00+
*       5.0931250000E+00               0
GRID*                405               0-2.372562500E+000.0000000000E+00+
*       5.0840625000E+00               0
GRID*                406               0-2.368333333E+000.0000000000E+00+
*       5.0750000000E+00               0
GRID*                407               0-2.364104167E+000.0000000000E+00+
*       5.0659375000E+00               0
GRID*                408               0-2.359875000E+000.0000000000E+00+
*       5.0568750000E+00               0
GRID*                409               0-2.355645833E+000.0000000000E+00+
*       5.0478125000E+00               0
GRID*                410               0-2.351416667E+000.0000000000E+00+
*       5.0387500000E+00               0
GRID*                411               0-2.347187500E+000.0000000000E+00+
*       5.0296875000E+00               0
GRID*                412               0-2.342958333E+000.0000000000E+00+
*       5.0206250000E+00               0
GRID*                413               0-2.338729167E+000.0000000000E+00+
*       5.0115625000E+00               0
GRID*                414               0-2.334500000E+000.0000000000E+00+
*       5.0025000000E+00               0
GRID*                415               0-2.330270833E+000.0000000000E+00+
*       4.9934375000E+00               0
GRID*                416               0-2.326041667E+000.0000000000E+00+
*       4.9843750000E+00               0
GRID*                417               0-2.321812500E+000.0000000000E+00+
*       4.9753125000E+00               0
GRID*                418               0-2.317583333E+000.0000000000E+00+
*       4.9662500000E+00               0
GRID*                419               0-2.313354167E+000.0000000000E+00+
*       4.9571875000E+00               0
GRID*                420               0-2.309125000E+000.0000000000E+00+
*       4.9481250000E+00               0
GRID*                421               0-2.304895833E+000.0000000000E+00+
*       4.9390625000E+00               0
GRID*                422               0-2.300666667E+000.0000000000E+00+
*       4.9300000000E+00               0
GRID*                423               0-2.296437500E+000.0000000000E+00+
*       4.9209375000E+00               0
GRID*                424               0-2.292208333E+000.0000000000E+00+
*       4.9118750000E+00               0
GRID*                425               0-2.287979167E+000.0000000000E+00+
*       4.9028125000E+00               0
GRID*                426               0-2.283750000E+000.0000000000E+00+
*       4.8937500000E+00               0
GRID*                427               0-2.279520833E+000.0000000000E+00+
*       4.8846875000E+00               0
GRID*                428               0-2.275291667E+000.0000000000E+00+
*       4.8756250000E+00               0
GRID*                429               0-2.271062500E+000.0000000000E+00+
*       4.8665625000E+00               0
GRID*                430               0-2.266833333E+000.0000000000E+00+
*       4.8575000000E+00               0
GRID*                431               0-2.262604167E+000.0000000000E+00+
*       4.8484375000E+00               0
GRID*                432               0-2.258375000E+000.0000000000E+00+
*       4.8393750000E+00               0
GRID*                433               0-2.254145833E+000.0000000000E+00+
*       4.8303125000E+00               0
GRID*                434               0-2.249916667E+000.0000000000E+00+
*       4.8212500000E+00               0
GRID*                435               0-2.245687500E+000.0000000000E+00+
*       4.8121875000E+00               0
GRID*                436               0-2.241458333E+000.0000000000E+00+
*       4.8031250000E+00               0
GRID*                437               0-2.237229167E+000.0000000000E+00+
*       4.7940625000E+00               0
GRID*                438               0-2.233000000E+000.0000000000E+00+
*       4.7850000000E+00               0
GRID*                439               0-2.228770833E+000.0000000000E+00+
*       4.7759375000E+00               0
GRID*                440               0-2.224541667E+000.0000000000E+00+
*       4.7668750000E+00               0
GRID*                441               0-2.220312500E+000.0000000000E+00+
*       4.7578125000E+00               0
GRID*                442               0-2.216083333E+000.0000000000E+00+
*       4.7487500000E+00               0
GRID*                443               0-2.211854167E+000.0000000000E+00+
*       4.7396875000E+00               0
GRID*                444               0-2.207625000E+000.0000000000E+00+
*       4.7306250000E+00               0
GRID*                445               0-2.203395833E+000.0000000000E+00+
*       4.7215625000E+00               0
GRID*                446               0-2.199166667E+000.0000000000E+00+
*       4.7125000000E+00               0
GRID*                447               0-2.194937500E+000.0000000000E+00+
*       4.7034375000E+00               0
GRID*                448               0-2.190708333E+000.0000000000E+00+
*       4.6943750000E+00               0
GRID*                449               0-2.186479167E+000.0000000000E+00+
*       4.6853125000E+00               0
GRID*                450               0-2.182250000E+000.0000000000E+00+
*       4.6762500000E+00               0
GRID*                451               0-2.178020833E+000.0000000000E+00+
*       4.6671875000E+00               0
GRID*                452               0-2.173791667E+000.0000000000E+00+
*       4.6581250000E+00               0
GRID*                453               0-2.169562500E+000.0000000000E+00+
*       4.6490625000E+00               0
GRID*                454               0-2.165333333E+000.0000000000E+00+
*       4.6400000000E+00               0
GRID*                455               0-2.161104167E+000.0000000000E+00+
*       4.6309375000E+00               0
GRID*                456               0-2.156875000E+000.0000000000E+00+
*       4.6218750000E+00               0
GRID*                457               0-2.152645833E+000.0000000000E+00+
*       4.6128125000E+00               0
GRID*                458               0-2.148416667E+000.0000000000E+00+
*       4.6037500000E+00               0
GRID*                459               0-2.144187500E+000.0000000000E+00+
*       4.5946875000E+00               0
GRID*                460               0-2.139958333E+000.0000000000E+00+
*       4.5856250000E+00               0
GRID*                461               0-2.135729167E+000.0000000000E+00+
*       4.5765625000E+00               0
GRID*                462               0-2.131500000E+000.0000000000E+00+
*       4.5675000000E+00               0
GRID*                463               0-2.127270833E+000.0000000000E+00+
*       4.5584375000E+00               0
GRID*                464               0-2.123041667E+000.0000000000E+00+
*       4.5493750000E+00               0
GRID*                465               0-2.118812500E+000.0000000000E+00+
*       4.5403125000E+00               0
GRID*                466               0-2.114583333E+000.0000000000E+00+
*       4.5312500000E+00               0
GRID*                467               0-2.110354167E+000.0000000000E+00+
*       4.5221875000E+00               0
GRID*                468               0-2.106125000E+000.0000000000E+00+
*       4.5131250000E+00               0
GRID*                469               0-2.101895833E+000.0000000000E+00+
*       4.5040625000E+00               0
GRID*                470               0-2.097666667E+000.0000000000E+00+
*       4.4950000000E+00               0
GRID*                471               0-2.093437500E+000.0000000000E+00+
*       4.4859375000E+00               0
GRID*                472               0-2.089208333E+000.0000000000E+00+
*       4.4768750000E+00               0
GRID*                473               0-2.084979167E+000.0000000000E+00+
*       4.4678125000E+00               0
GRID*                474               0-2.080750000E+000.0000000000E+00+
*       4.4587500000E+00               0
GRID*                475               0-2.076520833E+000.0000000000E+00+
*       4.4496875000E+00               0
GRID*                476               0-2.072291667E+000.0000000000E+00+
*       4.4406250000E+00               0
GRID*                477               0-2.068062500E+000.0000000000E+00+
*       4.4315625000E+00               0
GRID*                478               0-2.063833333E+000.0000000000E+00+
*       4.4225000000E+00               0
GRID*                479               0-2.059604167E+000.0000000000E+00+
*       4.4134375000E+00               0
GRID*                480               0-2.055375000E+000.0000000000E+00+
*       4.4043750000E+00               0
GRID*                481               0-2.051145833E+000.0000000000E+00+
*       4.3953125000E+00               0
GRID*                482               0-2.046916667E+000.0000000000E+00+
*       4.3862500000E+00               0
GRID*                483               0-2.042687500E+000.0000000000E+00+
*       4.3771875000E+00               0
GRID*                484               0-2.038458333E+000.0000000000E+00+
*       4.3681250000E+00               0
GRID*                485               0-2.034229167E+000.0000000000E+00+
*       4.3590625000E+00               0
GRID*                486               0-2.030000000E+000.0000000000E+00+
*       4.3500000000E+00               0
GRID*                487               0-2.025770833E+000.0000000000E+00+
*       4.3409375000E+00               0
GRID*                488               0-2.021541667E+000.0000000000E+00+
*       4.3318750000E+00               0
GRID*                489               0-2.017312500E+000.0000000000E+00+
*       4.3228125000E+00               0
GRID*                490               0-2.013083333E+000.0000000000E+00+
*       4.3137500000E+00               0
GRID*                491               0-2.008854167E+000.0000000000E+00+
*       4.3046875000E+00               0
GRID*                492               0-2.004625000E+000.0000000000E+00+
*       4.2956250000E+00               0
GRID*                493               0-2.000395833E+000.0000000000E+00+
*       4.2865625000E+00               0
GRID*                494               0-1.996166667E+000.0000000000E+00+
*       4.2775000000E+00               0
GRID*                495               0-1.991937500E+000.0000000000E+00+
*       4.2684375000E+00               0
GRID*                496               0-1.987708333E+000.0000000000E+00+
*       4.2593750000E+00               0
GRID*                497               0-1.983479167E+000.0000000000E+00+
*       4.2503125000E+00               0
GRID*                498               0-1.979250000E+000.0000000000E+00+
*       4.2412500000E+00               0
GRID*                499               0-1.975020833E+000.0000000000E+00+
*       4.2321875000E+00               0
GRID*                500               0-1.970791667E+000.0000000000E+00+
*       4.2231250000E+00               0
GRID*                501               0-1.966562500E+000.0000000000E+00+
*       4.2140625000E+00               0
GRID*                502               0-1.962333333E+000.0000000000E+00+
*       4.2050000000E+00               0
GRID*                503               0-1.958104167E+000.0000000000E+00+
*       4.1959375000E+00               0
GRID*                504               0-1.953875000E+000.0000000000E+00+
*       4.1868750000E+00               0
GRID*                505               0-1.949645833E+000.0000000000E+00+
*       4.1778125000E+00               0
GRID*                506               0-1.945416667E+000.0000000000E+00+
*       4.1687500000E+00               0
GRID*                507               0-1.941187500E+000.0000000000E+00+
*       4.1596875000E+00               0
GRID*                508               0-1.936958333E+000.0000000000E+00+
*       4.1506250000E+00               0
GRID*                509               0-1.932729167E+000.0000000000E+00+
*       4.1415625000E+00               0
GRID*                510               0-1.928500000E+000.0000000000E+00+
*       4.1325000000E+00               0
GRID*                511               0-1.924270833E+000.0000000000E+00+
*       4.1234375000E+00               0
GRID*                512               0-1.920041667E+000.0000000000E+00+
*       4.1143750000E+00               0
GRID*                513               0-1.915812500E+000.0000000000E+00+
*       4.1053125000E+00               0
GRID*                514               0-1.911583333E+000.0000000000E+00+
*       4.0962500000E+00               0
GRID*                515               0-1.907354167E+000.0000000000E+00+
*       4.0871875000E+00               0
GRID*                516               0-1.903125000E+000.0000000000E+00+
*       4.0781250000E+00               0
GRID*                517               0-1.898895833E+000.0000000000E+00+
*       4.0690625000E+00               0
GRID*                518               0-1.894666667E+000.0000000000E+00+
*       4.0600000000E+00               0
GRID*                519               0-1.890437500E+000.0000000000E+00+
*       4.0509375000E+00               0
GRID*                520               0-1.886208333E+000.0000000000E+00+
*       4.0418750000E+00               0
GRID*                521               0-1.881979167E+000.0000000000E+00+
*       4.0328125000E+00               0
GRID*                522               0-1.877750000E+000.0000000000E+00+
*       4.0237500000E+00               0
GRID*                523               0-1.873520833E+000.0000000000E+00+
*       4.0146875000E+00               0
GRID*                524               0-1.869291667E+000.0000000000E+00+
*       4.0056250000E+00               0
GRID*                525               0-1.865062500E+000.0000000000E+00+
*       3.9965625000E+00               0
GRID*                526               0-1.860833333E+000.0000000000E+00+
*       3.9875000000E+00               0
GRID*                527               0-1.856604167E+000.0000000000E+00+
*       3.9784375000E+00               0
GRID*                528               0-1.852375000E+000.0000000000E+00+
*       3.9693750000E+00               0
GRID*                529               0-1.848145833E+000.0000000000E+00+
*       3.9603125000E+00               0
GRID*                530               0-1.843916667E+000.0000000000E+00+
*       3.9512500000E+00               0
GRID*                531               0-1.839687500E+000.0000000000E+00+
*       3.9421875000E+00               0
GRID*                532               0-1.835458333E+000.0000000000E+00+
*       3.9331250000E+00               0
GRID*                533               0-1.831229167E+000.0000000000E+00+
*       3.9240625000E+00               0
GRID*                534               0-1.827000000E+000.0000000000E+00+
*       3.9150000000E+00               0
GRID*                535               0-1.822770833E+000.0000000000E+00+
*       3.9059375000E+00               0
GRID*                536               0-1.818541667E+000.0000000000E+00+
*       3.8968750000E+00               0
GRID*                537               0-1.814312500E+000.0000000000E+00+
*       3.8878125000E+00               0
GRID*                538               0-1.810083333E+000.0000000000E+00+
*       3.8787500000E+00               0
GRID*                539               0-1.805854167E+000.0000000000E+00+
*       3.8696875000E+00               0
GRID*                540               0-1.801625000E+000.0000000000E+00+
*       3.8606250000E+00               0
GRID*                541               0-1.797395833E+000.0000000000E+00+
*       3.8515625000E+00               0
GRID*                542               0-1.793166667E+000.0000000000E+00+
*       3.8425000000E+00               0
GRID*                543               0-1.788937500E+000.0000000000E+00+
*       3.8334375000E+00               0
GRID*                544               0-1.784708333E+000.0000000000E+00+
*       3.8243750000E+00               0
GRID*                545               0-1.780479167E+000.0000000000E+00+
*       3.8153125000E+00               0
GRID*                546               0-1.776250000E+000.0000000000E+00+
*       3.8062500000E+00               0
GRID*                547               0-1.772020833E+000.0000000000E+00+
*       3.7971875000E+00               0
GRID*                548               0-1.767791667E+000.0000000000E+00+
*       3.7881250000E+00               0
GRID*                549               0-1.763562500E+000.0000000000E+00+
*       3.7790625000E+00               0
GRID*                550               0-1.759333333E+000.0000000000E+00+
*       3.7700000000E+00               0
GRID*                551               0-1.755104167E+000.0000000000E+00+
*       3.7609375000E+00               0
GRID*                552               0-1.750875000E+000.0000000000E+00+
*       3.7518750000E+00               0
GRID*                553               0-1.746645833E+000.0000000000E+00+
*       3.7428125000E+00               0
GRID*                554               0-1.742416667E+000.0000000000E+00+
*       3.7337500000E+00               0
GRID*                555               0-1.738187500E+000.0000000000E+00+
*       3.7246875000E+00               0
GRID*                556               0-1.733958333E+000.0000000000E+00+
*       3.7156250000E+00               0
GRID*                557               0-1.729729167E+000.0000000000E+00+
*       3.7065625000E+00               0
GRID*                558               0-1.725500000E+000.0000000000E+00+
*       3.6975000000E+00               0
GRID*                559               0-1.721270833E+000.0000000000E+00+
*       3.6884375000E+00               0
GRID*                560               0-1.717041667E+000.0000000000E+00+
*       3.6793750000E+00               0
GRID*                561               0-1.712812500E+000.0000000000E+00+
*       3.6703125000E+00               0
GRID*                562               0-1.708583333E+000.0000000000E+00+
*       3.6612500000E+00               0
GRID*                563               0-1.704354167E+000.0000000000E+00+
*       3.6521875000E+00               0
GRID*                564               0-1.700125000E+000.0000000000E+00+
*       3.6431250000E+00               0
GRID*                565               0-1.695895833E+000.0000000000E+00+
*       3.6340625000E+00               0
GRID*                566               0-1.691666667E+000.0000000000E+00+
*       3.6250000000E+00               0
GRID*                567               0-1.687437500E+000.0000000000E+00+
*       3.6159375000E+00               0
GRID*                568               0-1.683208333E+000.0000000000E+00+
*       3.6068750000E+00               0
GRID*                569               0-1.678979167E+000.0000000000E+00+
*       3.5978125000E+00               0
GRID*                570               0-1.674750000E+000.0000000000E+00+
*       3.5887500000E+00               0
GRID*                571               0-1.670520833E+000.0000000000E+00+
*       3.5796875000E+00               0
GRID*                572               0-1.666291667E+000.0000000000E+00+
*       3.5706250000E+00               0
GRID*                573               0-1.662062500E+000.0000000000E+00+
*       3.5615625000E+00               0
GRID*                574               0-1.657833333E+000.0000000000E+00+
*       3.5525000000E+00               0
GRID*                575               0-1.653604167E+000.0000000000E+00+
*       3.5434375000E+00               0
GRID*                576               0-1.649375000E+000.0000000000E+00+
*       3.5343750000E+00               0
GRID*                577               0-1.645145833E+000.0000000000E+00+
*       3.5253125000E+00               0
GRID*                578               0-1.640916667E+000.0000000000E+00+
*       3.5162500000E+00               0
GRID*                579               0-1.636687500E+000.0000000000E+00+
*       3.5071875000E+00               0
GRID*                580               0-1.632458333E+000.0000000000E+00+
*       3.4981250000E+00               0
GRID*                581               0-1.628229167E+000.0000000000E+00+
*       3.4890625000E+00               0
GRID*                582               0-1.624000000E+000.0000000000E+00+
*       3.4800000000E+00               0
GRID*                583               0-1.619770833E+000.0000000000E+00+
*       3.4709375000E+00               0
GRID*                584               0-1.615541667E+000.0000000000E+00+
*       3.4618750000E+00               0
GRID*                585               0-1.611312500E+000.0000000000E+00+
*       3.4528125000E+00               0
GRID*                586               0-1.607083333E+000.0000000000E+00+
*       3.4437500000E+00               0
GRID*                587               0-1.602854167E+000.0000000000E+00+
*       3.4346875000E+00               0
GRID*                588               0-1.598625000E+000.0000000000E+00+
*       3.4256250000E+00               0
GRID*                589               0-1.594395833E+000.0000000000E+00+
*       3.4165625000E+00               0
GRID*                590               0-1.590166667E+000.0000000000E+00+
*       3.4075000000E+00               0
GRID*                591               0-1.585937500E+000.0000000000E+00+
*       3.3984375000E+00               0
GRID*                592               0-1.581708333E+000.0000000000E+00+
*       3.3893750000E+00               0
GRID*                593               0-1.577479167E+000.0000000000E+00+
*       3.3803125000E+00               0
GRID*                594               0-1.573250000E+000.0000000000E+00+
*       3.3712500000E+00               0
GRID*                595               0-1.569020833E+000.0000000000E+00+
*       3.3621875000E+00               0
GRID*                596               0-1.564791667E+000.0000000000E+00+
*       3.3531250000E+00               0
GRID*                597               0-1.560562500E+000.0000000000E+00+
*       3.3440625000E+00               0
GRID*                598               0-1.556333333E+000.0000000000E+00+
*       3.3350000000E+00               0
GRID*                599               0-1.552104167E+000.0000000000E+00+
*       3.3259375000E+00               0
GRID*                600               0-1.547875000E+000.0000000000E+00+
*       3.3168750000E+00               0
GRID*                601               0-1.543645833E+000.0000000000E+00+
*       3.3078125000E+00               0
GRID*                602               0-1.539416667E+000.0000000000E+00+
*       3.2987500000E+00               0
GRID*                603               0-1.535187500E+000.0000000000E+00+
*       3.2896875000E+00               0
GRID*                604               0-1.530958333E+000.0000000000E+00+
*       3.2806250000E+00               0
GRID*                605               0-1.526729167E+000.0000000000E+00+
*       3.2715625000E+00               0
GRID*                606               0-1.522500000E+000.0000000000E+00+
*       3.2625000000E+00               0
GRID*                607               0-1.518270833E+000.0000000000E+00+
*       3.2534375000E+00               0
GRID*                608               0-1.514041667E+000.0000000000E+00+
*       3.2443750000E+00               0
GRID*                609               0-1.509812500E+000.0000000000E+00+
*       3.2353125000E+00               0
GRID*                610               0-1.505583333E+000.0000000000E+00+
*       3.2262500000E+00               0
GRID*                611               0-1.501354167E+000.0000000000E+00+
*       3.2171875000E+00               0
GRID*                612               0-1.497125000E+000.0000000000E+00+
*       3.2081250000E+00               0
GRID*                613               0-1.492895833E+000.0000000000E+00+
*       3.1990625000E+00               0
GRID*                614               0-1.488666667E+000.0000000000E+00+
*       3.1900000000E+00               0
GRID*                615               0-1.484437500E+000.0000000000E+00+
*       3.1809375000E+00               0
GRID*                616               0-1.480208333E+000.0000000000E+00+
*       3.1718750000E+00               0
GRID*                617               0-1.475979167E+000.0000000000E+00+
*       3.1628125000E+00               0
GRID*                618               0-1.471750000E+000.0000000000E+00+
*       3.1537500000E+00               0
GRID*                619               0-1.467520833E+000.0000000000E+00+
*       3.1446875000E+00               0
GRID*                620               0-1.463291667E+000.0000000000E+00+
*       3.1356250000E+00               0
GRID*                621               0-1.459062500E+000.0000000000E+00+
*       3.1265625000E+00               0
GRID*                622               0-1.454833333E+000.0000000000E+00+
*       3.1175000000E+00               0
GRID*                623               0-1.450604167E+000.0000000000E+00+
*       3.1084375000E+00               0
GRID*                624               0-1.446375000E+000.0000000000E+00+
*       3.0993750000E+00               0
GRID*                625               0-1.442145833E+000.0000000000E+00+
*       3.0903125000E+00               0
GRID*                626               0-1.437916667E+000.0000000000E+00+
*       3.0812500000E+00               0
GRID*                627               0-1.433687500E+000.0000000000E+00+
*       3.0721875000E+00               0
GRID*                628               0-1.429458333E+000.0000000000E+00+
*       3.0631250000E+00               0
GRID*                629               0-1.425229167E+000.0000000000E+00+
*       3.0540625000E+00               0
GRID*                630               0-1.421000000E+000.0000000000E+00+
*       3.0450000000E+00               0
GRID*                631               0-1.416770833E+000.0000000000E+00+
*       3.0359375000E+00               0
GRID*                632               0-1.412541667E+000.0000000000E+00+
*       3.0268750000E+00               0
GRID*                633               0-1.408312500E+000.0000000000E+00+
*       3.0178125000E+00               0
GRID*                634               0-1.404083333E+000.0000000000E+00+
*       3.0087500000E+00               0
GRID*                635               0-1.399854167E+000.0000000000E+00+
*       2.9996875000E+00               0
GRID*                636               0-1.395625000E+000.0000000000E+00+
*       2.9906250000E+00               0
GRID*                637               0-1.391395833E+000.0000000000E+00+
*       2.9815625000E+00               0
GRID*                638               0-1.387166667E+000.0000000000E+00+
*       2.9725000000E+00               0
GRID*                639               0-1.382937500E+000.0000000000E+00+
*       2.9634375000E+00               0
GRID*                640               0-1.378708333E+000.0000000000E+00+
*       2.9543750000E+00               0
GRID*                641               0-1.374479167E+000.0000000000E+00+
*       2.9453125000E+00               0
GRID*                642               0-1.370250000E+000.0000000000E+00+
*       2.9362500000E+00               0
GRID*                643               0-1.366020833E+000.0000000000E+00+
*       2.9271875000E+00               0
GRID*                644               0-1.361791667E+000.0000000000E+00+
*       2.9181250000E+00               0
GRID*                645               0-1.357562500E+000.0000000000E+00+
*       2.9090625000E+00               0
GRID*                646               0-1.353333333E+000.0000000000E+00+
*       2.9000000000E+00               0
GRID*                647               0-1.349104167E+000.0000000000E+00+
*       2.8909375000E+00               0
GRID*                648               0-1.344875000E+000.0000000000E+00+
*       2.8818750000E+00               0
GRID*                649               0-1.340645833E+000.0000000000E+00+
*       2.8728125000E+00               0
GRID*                650               0-1.336416667E+000.0000000000E+00+
*       2.8637500000E+00               0
GRID*                651               0-1.332187500E+000.0000000000E+00+
*       2.8546875000E+00               0
GRID*                652               0-1.327958333E+000.0000000000E+00+
*       2.8456250000E+00               0
GRID*                653               0-1.323729167E+000.0000000000E+00+
*       2.8365625000E+00               0
GRID*                654               0-1.319500000E+000.0000000000E+00+
*       2.8275000000E+00               0
GRID*                655               0-1.315270833E+000.0000000000E+00+
*       2.8184375000E+00               0
GRID*                656               0-1.311041667E+000.0000000000E+00+
*       2.8093750000E+00               0
GRID*                657               0-1.306812500E+000.0000000000E+00+
*       2.8003125000E+00               0
GRID*                658               0-1.302583333E+000.0000000000E+00+
*       2.7912500000E+00               0
GRID*                659               0-1.298354167E+000.0000000000E+00+
*       2.7821875000E+00               0
GRID*                660               0-1.294125000E+000.0000000000E+00+
*       2.7731250000E+00               0
GRID*                661               0-1.289895833E+000.0000000000E+00+
*       2.7640625000E+00               0
GRID*                662               0-1.285666667E+000.0000000000E+00+
*       2.7550000000E+00               0
GRID*                663               0-1.281437500E+000.0000000000E+00+
*       2.7459375000E+00               0
GRID*                664               0-1.277208333E+000.0000000000E+00+
*       2.7368750000E+00               0
GRID*                665               0-1.272979167E+000.0000000000E+00+
*       2.7278125000E+00               0
GRID*                666               0-1.268750000E+000.0000000000E+00+
*       2.7187500000E+00               0
GRID*                667               0-1.264520833E+000.0000000000E+00+
*       2.7096875000E+00               0
GRID*                668               0-1.260291667E+000.0000000000E+00+
*       2.7006250000E+00               0
GRID*                669               0-1.256062500E+000.0000000000E+00+
*       2.6915625000E+00               0
GRID*                670               0-1.251833333E+000.0000000000E+00+
*       2.6825000000E+00               0
GRID*                671               0-1.247604167E+000.0000000000E+00+
*       2.6734375000E+00               0
GRID*                672               0-1.243375000E+000.0000000000E+00+
*       2.6643750000E+00               0
GRID*                673               0-1.239145833E+000.0000000000E+00+
*       2.6553125000E+00               0
GRID*                674               0-1.234916667E+000.0000000000E+00+
*       2.6462500000E+00               0
GRID*                675               0-1.230687500E+000.0000000000E+00+
*       2.6371875000E+00               0
GRID*                676               0-1.226458333E+000.0000000000E+00+
*       2.6281250000E+00               0
GRID*                677               0-1.222229167E+000.0000000000E+00+
*       2.6190625000E+00               0
GRID*                678               0-1.218000000E+000.0000000000E+00+
*       2.6100000000E+00               0
GRID*                679               0-1.213770833E+000.0000000000E+00+
*       2.6009375000E+00               0
GRID*                680               0-1.209541667E+000.0000000000E+00+
*       2.5918750000E+00               0
GRID*                681               0-1.205312500E+000.0000000000E+00+
*       2.5828125000E+00               0
GRID*                682               0-1.201083333E+000.0000000000E+00+
*       2.5737500000E+00               0
GRID*                683               0-1.196854167E+000.0000000000E+00+
*       2.5646875000E+00               0
GRID*                684               0-1.192625000E+000.0000000000E+00+
*       2.5556250000E+00               0
GRID*                685               0-1.188395833E+000.0000000000E+00+
*       2.5465625000E+00               0
GRID*                686               0-1.184166667E+000.0000000000E+00+
*       2.5375000000E+00               0
GRID*                687               0-1.179937500E+000.0000000000E+00+
*       2.5284375000E+00               0
GRID*                688               0-1.175708333E+000.0000000000E+00+
*       2.5193750000E+00               0
GRID*                689               0-1.171479167E+000.0000000000E+00+
*       2.5103125000E+00               0
GRID*                690               0-1.167250000E+000.0000000000E+00+
*       2.5012500000E+00               0
GRID*                691               0-1.163020833E+000.0000000000E+00+
*       2.4921875000E+00               0
GRID*                692               0-1.158791667E+000.0000000000E+00+
*       2.4831250000E+00               0
GRID*                693               0-1.154562500E+000.0000000000E+00+
*       2.4740625000E+00               0
GRID*                694               0-1.150333333E+000.0000000000E+00+
*       2.4650000000E+00               0
GRID*                695               0-1.146104167E+000.0000000000E+00+
*       2.4559375000E+00               0
GRID*                696               0-1.141875000E+000.0000000000E+00+
*       2.4468750000E+00               0
GRID*                697               0-1.137645833E+000.0000000000E+00+
*       2.4378125000E+00               0
GRID*                698               0-1.133416667E+000.0000000000E+00+
*       2.4287500000E+00               0
GRID*                699               0-1.129187500E+000.0000000000E+00+
*       2.4196875000E+00               0
GRID*                700               0-1.124958333E+000.0000000000E+00+
*       2.4106250000E+00               0
GRID*                701               0-1.120729167E+000.0000000000E+00+
*       2.4015625000E+00               0
GRID*                702               0-1.116500000E+000.0000000000E+00+
*       2.3925000000E+00               0
GRID*                703               0-1.112270833E+000.0000000000E+00+
*       2.3834375000E+00               0
GRID*                704               0-1.108041667E+000.0000000000E+00+
*       2.3743750000E+00               0
GRID*                705               0-1.103812500E+000.0000000000E+00+
*       2.3653125000E+00               0
GRID*                706               0-1.099583333E+000.0000000000E+00+
*       2.3562500000E+00               0
GRID*                707               0-1.095354167E+000.0000000000E+00+
*       2.3471875000E+00               0
GRID*                708               0-1.091125000E+000.0000000000E+00+
*       2.3381250000E+00               0
GRID*                709               0-1.086895833E+000.0000000000E+00+
*       2.3290625000E+00               0
GRID*                710               0-1.082666667E+000.0000000000E+00+
*       2.3200000000E+00               0
GRID*                711               0-1.078437500E+000.0000000000E+00+
*       2.3109375000E+00               0
GRID*                712               0-1.074208333E+000.0000000000E+00+
*       2.3018750000E+00               0
GRID*                713               0-1.069979167E+000.0000000000E+00+
*       2.2928125000E+00               0
GRID*                714               0-1.065750000E+000.0000000000E+00+
*       2.2837500000E+00               0
GRID*                715               0-1.061520833E+000.0000000000E+00+
*       2.2746875000E+00               0
GRID*                716               0-1.057291667E+000.0000000000E+00+
*       2.2656250000E+00               0
GRID*                717               0-1.053062500E+000.0000000000E+00+
*       2.2565625000E+00               0
GRID*                718               0-1.048833333E+000.0000000000E+00+
*       2.2475000000E+00               0
GRID*                719               0-1.044604167E+000.0000000000E+00+
*       2.2384375000E+00               0
GRID*                720               0-1.040375000E+000.0000000000E+00+
*       2.2293750000E+00               0
GRID*                721               0-1.036145833E+000.0000000000E+00+
*       2.2203125000E+00               0
GRID*                722               0-1.031916667E+000.0000000000E+00+
*       2.2112500000E+00               0
GRID*                723               0-1.027687500E+000.0000000000E+00+
*       2.2021875000E+00               0
GRID*                724               0-1.023458333E+000.0000000000E+00+
*       2.1931250000E+00               0
GRID*                725               0-1.019229167E+000.0000000000E+00+
*       2.1840625000E+00               0
GRID*                726               0-1.015000000E+000.0000000000E+00+
*       2.1750000000E+00               0
GRID*                727               0-1.010770833E+000.0000000000E+00+
*       2.1659375000E+00               0
GRID*                728               0-1.006541667E+000.0000000000E+00+
*       2.1568750000E+00               0
GRID*                729               0-1.002312500E+000.0000000000E+00+
*       2.1478125000E+00               0
GRID*                730               0-9.980833333E-010.0000000000E+00+
*       2.1387500000E+00               0
GRID*                731               0-9.938541667E-010.0000000000E+00+
*       2.1296875000E+00               0
GRID*                732               0-9.896250000E-010.0000000000E+00+
*       2.1206250000E+00               0
GRID*                733               0-9.853958333E-010.0000000000E+00+
*       2.1115625000E+00               0
GRID*                734               0-9.811666667E-010.0000000000E+00+
*       2.1025000000E+00               0
GRID*                735               0-9.769375000E-010.0000000000E+00+
*       2.0934375000E+00               0
GRID*                736               0-9.727083333E-010.0000000000E+00+
*       2.0843750000E+00               0
GRID*                737               0-9.684791667E-010.0000000000E+00+
*       2.0753125000E+00               0
GRID*                738               0-9.642500000E-010.0000000000E+00+
*       2.0662500000E+00               0
GRID*                739               0-9.600208333E-010.0000000000E+00+
*       2.0571875000E+00               0
GRID*                740               0-9.557916667E-010.0000000000E+00+
*       2.0481250000E+00               0
GRID*                741               0-9.515625000E-010.0000000000E+00+
*       2.0390625000E+00               0
GRID*                742               0-9.473333333E-010.0000000000E+00+
*       2.0300000000E+00               0
GRID*                743               0-9.431041667E-010.0000000000E+00+
*       2.0209375000E+00               0
GRID*                744               0-9.388750000E-010.0000000000E+00+
*       2.0118750000E+00               0
GRID*                745               0-9.346458333E-010.0000000000E+00+
*       2.0028125000E+00               0
GRID*                746               0-9.304166667E-010.0000000000E+00+
*       1.9937500000E+00               0
GRID*                747               0-9.261875000E-010.0000000000E+00+
*       1.9846875000E+00               0
GRID*                748               0-9.219583333E-010.0000000000E+00+
*       1.9756250000E+00               0
GRID*                749               0-9.177291667E-010.0000000000E+00+
*       1.9665625000E+00               0
GRID*                750               0-9.135000000E-010.0000000000E+00+
*       1.9575000000E+00               0
GRID*                751               0-9.092708333E-010.0000000000E+00+
*       1.9484375000E+00               0
GRID*                752               0-9.050416667E-010.0000000000E+00+
*       1.9393750000E+00               0
GRID*                753               0-9.008125000E-010.0000000000E+00+
*       1.9303125000E+00               0
GRID*                754               0-8.965833333E-010.0000000000E+00+
*       1.9212500000E+00               0
GRID*                755               0-8.923541667E-010.0000000000E+00+
*       1.9121875000E+00               0
GRID*                756               0-8.881250000E-010.0000000000E+00+
*       1.9031250000E+00               0
GRID*                757               0-8.838958333E-010.0000000000E+00+
*       1.8940625000E+00               0
GRID*                758               0-8.796666667E-010.0000000000E+00+
*       1.8850000000E+00               0
GRID*                759               0-8.754375000E-010.0000000000E+00+
*       1.8759375000E+00               0
GRID*                760               0-8.712083333E-010.0000000000E+00+
*       1.8668750000E+00               0
GRID*                761               0-8.669791667E-010.0000000000E+00+
*       1.8578125000E+00               0
GRID*                762               0-8.627500000E-010.0000000000E+00+
*       1.8487500000E+00               0
GRID*                763               0-8.585208333E-010.0000000000E+00+
*       1.8396875000E+00               0
GRID*                764               0-8.542916667E-010.0000000000E+00+
*       1.8306250000E+00               0
GRID*                765               0-8.500625000E-010.0000000000E+00+
*       1.8215625000E+00               0
GRID*                766               0-8.458333333E-010.0000000000E+00+
*       1.8125000000E+00               0
GRID*                767               0-8.416041667E-010.0000000000E+00+
*       1.8034375000E+00               0
GRID*                768               0-8.373750000E-010.0000000000E+00+
*       1.7943750000E+00               0
GRID*                769               0-8.331458333E-010.0000000000E+00+
*       1.7853125000E+00               0
GRID*                770               0-8.289166667E-010.0000000000E+00+
*       1.7762500000E+00               0
GRID*                771               0-8.246875000E-010.0000000000E+00+
*       1.7671875000E+00               0
GRID*                772               0-8.204583333E-010.0000000000E+00+
*       1.7581250000E+00               0
GRID*                773               0-8.162291667E-010.0000000000E+00+
*       1.7490625000E+00               0
GRID*                774               0-8.120000000E-010.0000000000E+00+
*       1.7400000000E+00               0
GRID*                775               0-8.077708333E-010.0000000000E+00+
*       1.7309375000E+00               0
GRID*                776               0-8.035416667E-010.0000000000E+00+
*       1.7218750000E+00               0
GRID*                777               0-7.993125000E-010.0000000000E+00+
*       1.7128125000E+00               0
GRID*                778               0-7.950833333E-010.0000000000E+00+
*       1.7037500000E+00               0
GRID*                779               0-7.908541667E-010.0000000000E+00+
*       1.6946875000E+00               0
GRID*                780               0-7.866250000E-010.0000000000E+00+
*       1.6856250000E+00               0
GRID*                781               0-7.823958333E-010.0000000000E+00+
*       1.6765625000E+00               0
GRID*                782               0-7.781666667E-010.0000000000E+00+
*       1.6675000000E+00               0
GRID*                783               0-7.739375000E-010.0000000000E+00+
*       1.6584375000E+00               0
GRID*                784               0-7.697083333E-010.0000000000E+00+
*       1.6493750000E+00               0
GRID*                785               0-7.654791667E-010.0000000000E+00+
*       1.6403125000E+00               0
GRID*                786               0-7.612500000E-010.0000000000E+00+
*       1.6312500000E+00               0
GRID*                787               0-7.570208333E-010.0000000000E+00+
*       1.6221875000E+00               0
GRID*                788               0-7.527916667E-010.0000000000E+00+
*       1.6131250000E+00               0
GRID*                789               0-7.485625000E-010.0000000000E+00+
*       1.6040625000E+00               0
GRID*                790               0-7.443333333E-010.0000000000E+00+
*       1.5950000000E+00               0
GRID*                791               0-7.401041667E-010.0000000000E+00+
*       1.5859375000E+00               0
GRID*                792               0-7.358750000E-010.0000000000E+00+
*       1.5768750000E+00               0
GRID*                793               0-7.316458333E-010.0000000000E+00+
*       1.5678125000E+00               0
GRID*                794               0-7.274166667E-010.0000000000E+00+
*       1.5587500000E+00               0
GRID*                795               0-7.231875000E-010.0000000000E+00+
*       1.5496875000E+00               0
GRID*                796               0-7.189583333E-010.0000000000E+00+
*       1.5406250000E+00               0
GRID*                797               0-7.147291667E-010.0000000000E+00+
*       1.5315625000E+00               0
GRID*                798               0-7.105000000E-010.0000000000E+00+
*       1.5225000000E+00               0
GRID*                799               0-7.062708333E-010.0000000000E+00+
*       1.5134375000E+00               0
GRID*                800               0-7.020416667E-010.0000000000E+00+
*       1.5043750000E+00               0
GRID*                801               0-6.978125000E-010.0000000000E+00+
*       1.4953125000E+00               0
GRID*                802               0-6.935833333E-010.0000000000E+00+
*       1.4862500000E+00               0
GRID*                803               0-6.893541667E-010.0000000000E+00+
*       1.4771875000E+00               0
GRID*                804               0-6.851250000E-010.0000000000E+00+
*       1.4681250000E+00               0
GRID*                805               0-6.808958333E-010.0000000000E+00+
*       1.4590625000E+00               0
GRID*                806               0-6.766666667E-010.0000000000E+00+
*       1.4500000000E+00               0
GRID*                807               0-6.724375000E-010.0000000000E+00+
*       1.4409375000E+00               0
GRID*                808               0-6.682083333E-010.0000000000E+00+
*       1.4318750000E+00               0
GRID*                809               0-6.639791667E-010.0000000000E+00+
*       1.4228125000E+00               0
GRID*                810               0-6.597500000E-010.0000000000E+00+
*       1.4137500000E+00               0
GRID*                811               0-6.555208333E-010.0000000000E+00+
*       1.4046875000E+00               0
GRID*                812               0-6.512916667E-010.0000000000E+00+
*       1.3956250000E+00               0
GRID*                813               0-6.470625000E-010.0000000000E+00+
*       1.3865625000E+00               0
GRID*                814               0-6.428333333E-010.0000000000E+00+
*       1.3775000000E+00               0
GRID*                815               0-6.386041667E-010.0000000000E+00+
*       1.3684375000E+00               0
GRID*                816               0-6.343750000E-010.0000000000E+00+
*       1.3593750000E+00               0
GRID*                817               0-6.301458333E-010.0000000000E+00+
*       1.3503125000E+00               0
GRID*                818               0-6.259166667E-010.0000000000E+00+
*       1.3412500000E+00               0
GRID*                819               0-6.216875000E-010.0000000000E+00+
*       1.3321875000E+00               0
GRID*                820               0-6.174583333E-010.0000000000E+00+
*       1.3231250000E+00               0
GRID*                821               0-6.132291667E-010.0000000000E+00+
*       1.3140625000E+00               0
GRID*                822               0-6.090000000E-010.0000000000E+00+
*       1.3050000000E+00               0
GRID*                823               0-6.047708333E-010.0000000000E+00+
*       1.2959375000E+00               0
GRID*                824               0-6.005416667E-010.0000000000E+00+
*       1.2868750000E+00               0
GRID*                825               0-5.963125000E-010.0000000000E+00+
*       1.2778125000E+00               0
GRID*                826               0-5.920833333E-010.0000000000E+00+
*       1.2687500000E+00               0
GRID*                827               0-5.878541667E-010.0000000000E+00+
*       1.2596875000E+00               0
GRID*                828               0-5.836250000E-010.0000000000E+00+
*       1.2506250000E+00               0
GRID*                829               0-5.793958333E-010.0000000000E+00+
*       1.2415625000E+00               0
GRID*                830               0-5.751666667E-010.0000000000E+00+
*       1.2325000000E+00               0
GRID*                831               0-5.709375000E-010.0000000000E+00+
*       1.2234375000E+00               0
GRID*                832               0-5.667083333E-010.0000000000E+00+
*       1.2143750000E+00               0
GRID*                833               0-5.624791667E-010.0000000000E+00+
*       1.2053125000E+00               0
GRID*                834               0-5.582500000E-010.0000000000E+00+
*       1.1962500000E+00               0
GRID*                835               0-5.540208333E-010.0000000000E+00+
*       1.1871875000E+00               0
GRID*                836               0-5.497916667E-010.0000000000E+00+
*       1.1781250000E+00               0
GRID*                837               0-5.455625000E-010.0000000000E+00+
*       1.1690625000E+00               0
GRID*                838               0-5.413333333E-010.0000000000E+00+
*       1.1600000000E+00               0
GRID*                839               0-5.371041667E-010.0000000000E+00+
*       1.1509375000E+00               0
GRID*                840               0-5.328750000E-010.0000000000E+00+
*       1.1418750000E+00               0
GRID*                841               0-5.286458333E-010.0000000000E+00+
*       1.1328125000E+00               0
GRID*                842               0-5.244166667E-010.0000000000E+00+
*       1.1237500000E+00               0
GRID*                843               0-5.201875000E-010.0000000000E+00+
*       1.1146875000E+00               0
GRID*                844               0-5.159583333E-010.0000000000E+00+
*       1.1056250000E+00               0
GRID*                845               0-5.117291667E-010.0000000000E+00+
*       1.0965625000E+00               0
GRID*                846               0-5.075000000E-010.0000000000E+00+
*       1.0875000000E+00               0
GRID*                847               0-5.032708333E-010.0000000000E+00+
*       1.0784375000E+00               0
GRID*                848               0-4.990416667E-010.0000000000E+00+
*       1.0693750000E+00               0
GRID*                849               0-4.948125000E-010.0000000000E+00+
*       1.0603125000E+00               0
GRID*                850               0-4.905833333E-010.0000000000E+00+
*       1.0512500000E+00               0
GRID*                851               0-4.863541667E-010.0000000000E+00+
*       1.0421875000E+00               0
GRID*                852               0-4.821250000E-010.0000000000E+00+
*       1.0331250000E+00               0
GRID*                853               0-4.778958333E-010.0000000000E+00+
*       1.0240625000E+00               0
GRID*                854               0-4.736666667E-010.0000000000E+00+
*       1.0150000000E+00               0
GRID*                855               0-4.694375000E-010.0000000000E+00+
*       1.0059375000E+00               0
GRID*                856               0-4.652083333E-010.0000000000E+00+
*       9.9687500000E-01               0
GRID*                857               0-4.609791667E-010.0000000000E+00+
*       9.8781250000E-01               0
GRID*                858               0-4.567500000E-010.0000000000E+00+
*       9.7875000000E-01               0
GRID*                859               0-4.525208333E-010.0000000000E+00+
*       9.6968750000E-01               0
GRID*                860               0-4.482916667E-010.0000000000E+00+
*       9.6062500000E-01               0
GRID*                861               0-4.440625000E-010.0000000000E+00+
*       9.5156250000E-01               0
GRID*                862               0-4.398333333E-010.0000000000E+00+
*       9.4250000000E-01               0
GRID*                863               0-4.356041667E-010.0000000000E+00+
*       9.3343750000E-01               0
GRID*                864               0-4.313750000E-010.0000000000E+00+
*       9.2437500000E-01               0
GRID*                865               0-4.271458333E-010.0000000000E+00+
*       9.1531250000E-01               0
GRID*                866               0-4.229166667E-010.0000000000E+00+
*       9.0625000000E-01               0
GRID*                867               0-4.186875000E-010.0000000000E+00+
*       8.9718750000E-01               0
GRID*                868               0-4.144583333E-010.0000000000E+00+
*       8.8812500000E-01               0
GRID*                869               0-4.102291667E-010.0000000000E+00+
*       8.7906250000E-01               0
GRID*                870               0-4.060000000E-010.0000000000E+00+
*       8.7000000000E-01               0
GRID*                871               0-4.017708333E-010.0000000000E+00+
*       8.6093750000E-01               0
GRID*                872               0-3.975416667E-010.0000000000E+00+
*       8.5187500000E-01               0
GRID*                873               0-3.933125000E-010.0000000000E+00+
*       8.4281250000E-01               0
GRID*                874               0-3.890833333E-010.0000000000E+00+
*       8.3375000000E-01               0
GRID*                875               0-3.848541667E-010.0000000000E+00+
*       8.2468750000E-01               0
GRID*                876               0-3.806250000E-010.0000000000E+00+
*       8.1562500000E-01               0
GRID*                877               0-3.763958333E-010.0000000000E+00+
*       8.0656250000E-01               0
GRID*                878               0-3.721666667E-010.0000000000E+00+
*       7.9750000000E-01               0
GRID*                879               0-3.679375000E-010.0000000000E+00+
*       7.8843750000E-01               0
GRID*                880               0-3.637083333E-010.0000000000E+00+
*       7.7937500000E-01               0
GRID*                881               0-3.594791667E-010.0000000000E+00+
*       7.7031250000E-01               0
GRID*                882               0-3.552500000E-010.0000000000E+00+
*       7.6125000000E-01               0
GRID*                883               0-3.510208333E-010.0000000000E+00+
*       7.5218750000E-01               0
GRID*                884               0-3.467916667E-010.0000000000E+00+
*       7.4312500000E-01               0
GRID*                885               0-3.425625000E-010.0000000000E+00+
*       7.3406250000E-01               0
GRID*                886               0-3.383333333E-010.0000000000E+00+
*       7.2500000000E-01               0
GRID*                887               0-3.341041667E-010.0000000000E+00+
*       7.1593750000E-01               0
GRID*                888               0-3.298750000E-010.0000000000E+00+
*       7.0687500000E-01               0
GRID*                889               0-3.256458333E-010.0000000000E+00+
*       6.9781250000E-01               0
GRID*                890               0-3.214166667E-010.0000000000E+00+
*       6.8875000000E-01               0
GRID*                891               0-3.171875000E-010.0000000000E+00+
*       6.7968750000E-01               0
GRID*                892               0-3.129583333E-010.0000000000E+00+
*       6.7062500000E-01               0
GRID*                893               0-3.087291667E-010.0000000000E+00+
*       6.6156250000E-01               0
GRID*                894               0-3.045000000E-010.0000000000E+00+
*       6.5250000000E-01               0
GRID*                895               0-3.002708333E-010.0000000000E+00+
*       6.4343750000E-01               0
GRID*                896               0-2.960416667E-010.0000000000E+00+
*       6.3437500000E-01               0
GRID*                897               0-2.918125000E-010.0000000000E+00+
*       6.2531250000E-01               0
GRID*                898               0-2.875833333E-010.0000000000E+00+
*       6.1625000000E-01               0
GRID*                899               0-2.833541667E-010.0000000000E+00+
*       6.0718750000E-01               0
GRID*                900               0-2.791250000E-010.0000000000E+00+
*       5.9812500000E-01               0
GRID*                901               0-2.748958333E-010.0000000000E+00+
*       5.8906250000E-01               0
GRID*                902               0-2.706666667E-010.0000000000E+00+
*       5.8000000000E-01               0
GRID*                903               0-2.664375000E-010.0000000000E+00+
*       5.7093750000E-01               0
GRID*                904               0-2.622083333E-010.0000000000E+00+
*       5.6187500000E-01               0
GRID*                905               0-2.579791667E-010.0000000000E+00+
*       5.5281250000E-01               0
GRID*                906               0-2.537500000E-010.0000000000E+00+
*       5.4375000000E-01               0
GRID*                907               0-2.495208333E-010.0000000000E+00+
*       5.3468750000E-01               0
GRID*                908               0-2.452916667E-010.0000000000E+00+
*       5.2562500000E-01               0
GRID*                909               0-2.410625000E-010.0000000000E+00+
*       5.1656250000E-01               0
GRID*                910               0-2.368333333E-010.0000000000E+00+
*       5.0750000000E-01               0
GRID*                911               0-2.326041667E-010.0000000000E+00+
*       4.9843750000E-01               0
GRID*                912               0-2.283750000E-010.0000000000E+00+
*       4.8937500000E-01               0
GRID*                913               0-2.241458333E-010.0000000000E+00+
*       4.8031250000E-01               0
GRID*                914               0-2.199166667E-010.0000000000E+00+
*       4.7125000000E-01               0
GRID*                915               0-2.156875000E-010.0000000000E+00+
*       4.6218750000E-01               0
GRID*                916               0-2.114583333E-010.0000000000E+00+
*       4.5312500000E-01               0
GRID*                917               0-2.072291667E-010.0000000000E+00+
*       4.4406250000E-01               0
GRID*                918               0-2.030000000E-010.0000000000E+00+
*       4.3500000000E-01               0
GRID*                919               0-1.987708333E-010.0000000000E+00+
*       4.2593750000E-01               0
GRID*                920               0-1.945416667E-010.0000000000E+00+
*       4.1687500000E-01               0
GRID*                921               0-1.903125000E-010.0000000000E+00+
*       4.0781250000E-01               0
GRID*                922               0-1.860833333E-010.0000000000E+00+
*       3.9875000000E-01               0
GRID*                923               0-1.818541667E-010.0000000000E+00+
*       3.8968750000E-01               0
GRID*                924               0-1.776250000E-010.0000000000E+00+
*       3.8062500000E-01               0
GRID*                925               0-1.733958333E-010.0000000000E+00+
*       3.7156250000E-01               0
GRID*                926               0-1.691666667E-010.0000000000E+00+
*       3.6250000000E-01               0
GRID*                927               0-1.649375000E-010.0000000000E+00+
*       3.5343750000E-01               0
GRID*                928               0-1.607083333E-010.0000000000E+00+
*       3.4437500000E-01               0
GRID*                929               0-1.564791667E-010.0000000000E+00+
*       3.3531250000E-01               0
GRID*                930               0-1.522500000E-010.0000000000E+00+
*       3.2625000000E-01               0
GRID*                931               0-1.480208333E-010.0000000000E+00+
*       3.1718750000E-01               0
GRID*                932               0-1.437916667E-010.0000000000E+00+
*       3.0812500000E-01               0
GRID*                933               0-1.395625000E-010.0000000000E+00+
*       2.9906250000E-01               0
GRID*                934               0-1.353333333E-010.0000000000E+00+
*       2.9000000000E-01               0
GRID*                935               0-1.311041667E-010.0000000000E+00+
*       2.8093750000E-01               0
GRID*                936               0-1.268750000E-010.0000000000E+00+
*       2.7187500000E-01               0
GRID*                937               0-1.226458333E-010.0000000000E+00+
*       2.6281250000E-01               0
GRID*                938               0-1.184166667E-010.0000000000E+00+
*       2.5375000000E-01               0
GRID*                939               0-1.141875000E-010.0000000000E+00+
*       2.4468750000E-01               0
GRID*                940               0-1.099583333E-010.0000000000E+00+
*       2.3562500000E-01               0
GRID*                941               0-1.057291667E-010.0000000000E+00+
*       2.2656250000E-01               0
GRID*                942               0-1.015000000E-010.0000000000E+00+
*       2.1750000000E-01               0
GRID*                943               0-9.727083333E-020.0000000000E+00+
*       2.0843750000E-01               0
GRID*                944               0-9.304166667E-020.0000000000E+00+
*       1.9937500000E-01               0
GRID*                945               0-8.881250000E-020.0000000000E+00+
*       1.9031250000E-01               0
GRID*                946               0-8.458333333E-020.0000000000E+00+
*       1.8125000000E-01               0
GRID*                947               0-8.035416667E-020.0000000000E+00+
*       1.7218750000E-01               0
GRID*                948               0-7.612500000E-020.0000000000E+00+
*       1.6312500000E-01               0
GRID*                949               0-7.189583333E-020.0000000000E+00+
*       1.5406250000E-01               0
GRID*                950               0-6.766666667E-020.0000000000E+00+
*       1.4500000000E-01               0
GRID*                951               0-6.343750000E-020.0000000000E+00+
*       1.3593750000E-01               0
GRID*                952               0-5.920833333E-020.0000000000E+00+
*       1.2687500000E-01               0
GRID*                953               0-5.497916667E-020.0000000000E+00+
*       1.1781250000E-01               0
GRID*                954               0-5.075000000E-020.0000000000E+00+
*       1.0875000000E-01               0
GRID*                955               0-4.652083333E-020.0000000000E+00+
*       9.9687500000E-02               0
GRID*                956               0-4.229166667E-020.0000000000E+00+
*       9.0625000000E-02               0
GRID*                957               0-3.806250000E-020.0000000000E+00+
*       8.1562500000E-02               0
GRID*                958               0-3.383333333E-020.0000000000E+00+
*       7.2500000000E-02               0
GRID*                959               0-2.960416667E-020.0000000000E+00+
*       6.3437500000E-02               0
GRID*                960               0-2.537500000E-020.0000000000E+00+
*       5.4375000000E-02               0
GRID*                961               0-2.114583333E-020.0000000000E+00+
*       4.5312500000E-02               0
GRID*                962               0-1.691666667E-020.0000000000E+00+
*       3.6250000000E-02               0
GRID*                963               0-1.268750000E-020.0000000000E+00+
*       2.7187500000E-02               0
GRID*                964               0-8.458333333E-030.0000000000E+00+
*       1.8125000000E-02               0
GRID*                965               0-4.229166667E-030.0000000000E+00+
*       9.0625000001E-03               0
GRID*                966               01.7763568394E-150.0000000000E+00+
*       -3.552713679E-15               0
GRID*                967               0-9.660000000E+000.0000000000E+00+
*       4.5960000000E+01               0
GRID*                968               0-9.658955882E+000.0000000000E+00+
*       4.5950051471E+01               0
GRID*                969               0-9.657911765E+000.0000000000E+00+
*       4.5940102941E+01               0
GRID*                970               0-9.656867647E+000.0000000000E+00+
*       4.5930154412E+01               0
GRID*                971               0-9.655823529E+000.0000000000E+00+
*       4.5920205882E+01               0
GRID*                972               0-9.654779412E+000.0000000000E+00+
*       4.5910257353E+01               0
GRID*                973               0-9.653735294E+000.0000000000E+00+
*       4.5900308824E+01               0
GRID*                974               0-9.652691176E+000.0000000000E+00+
*       4.5890360294E+01               0
GRID*                975               0-9.651647059E+000.0000000000E+00+
*       4.5880411765E+01               0
GRID*                976               0-9.650602941E+000.0000000000E+00+
*       4.5870463235E+01               0
GRID*                977               0-9.649558824E+000.0000000000E+00+
*       4.5860514706E+01               0
GRID*                978               0-9.648514706E+000.0000000000E+00+
*       4.5850566176E+01               0
GRID*                979               0-9.647470588E+000.0000000000E+00+
*       4.5840617647E+01               0
GRID*                980               0-9.646426471E+000.0000000000E+00+
*       4.5830669118E+01               0
GRID*                981               0-9.645382353E+000.0000000000E+00+
*       4.5820720588E+01               0
GRID*                982               0-9.644338235E+000.0000000000E+00+
*       4.5810772059E+01               0
GRID*                983               0-9.643294118E+000.0000000000E+00+
*       4.5800823529E+01               0
GRID*                984               0-9.642250000E+000.0000000000E+00+
*       4.5790875000E+01               0
GRID*                985               0-9.641205882E+000.0000000000E+00+
*       4.5780926471E+01               0
GRID*                986               0-9.640161765E+000.0000000000E+00+
*       4.5770977941E+01               0
GRID*                987               0-9.639117647E+000.0000000000E+00+
*       4.5761029412E+01               0
GRID*                988               0-9.638073529E+000.0000000000E+00+
*       4.5751080882E+01               0
GRID*                989               0-9.637029412E+000.0000000000E+00+
*       4.5741132353E+01               0
GRID*                990               0-9.635985294E+000.0000000000E+00+
*       4.5731183824E+01               0
GRID*                991               0-9.634941176E+000.0000000000E+00+
*       4.5721235294E+01               0
GRID*                992               0-9.633897059E+000.0000000000E+00+
*       4.5711286765E+01               0
GRID*                993               0-9.632852941E+000.0000000000E+00+
*       4.5701338235E+01               0
GRID*                994               0-9.631808824E+000.0000000000E+00+
*       4.5691389706E+01               0
GRID*                995               0-9.630764706E+000.0000000000E+00+
*       4.5681441176E+01               0
GRID*                996               0-9.629720588E+000.0000000000E+00+
*       4.5671492647E+01               0
GRID*                997               0-9.628676471E+000.0000000000E+00+
*       4.5661544118E+01               0
GRID*                998               0-9.627632353E+000.0000000000E+00+
*       4.5651595588E+01               0
GRID*                999               0-9.626588235E+000.0000000000E+00+
*       4.5641647059E+01               0
GRID*               1000               0-9.625544118E+000.0000000000E+00+
*       4.5631698529E+01               0
GRID*               1001               0-9.624500000E+000.0000000000E+00+
*       4.5621750000E+01               0
GRID*               1002               0-9.623455882E+000.0000000000E+00+
*       4.5611801471E+01               0
GRID*               1003               0-9.622411765E+000.0000000000E+00+
*       4.5601852941E+01               0
GRID*               1004               0-9.621367647E+000.0000000000E+00+
*       4.5591904412E+01               0
GRID*               1005               0-9.620323529E+000.0000000000E+00+
*       4.5581955882E+01               0
GRID*               1006               0-9.619279412E+000.0000000000E+00+
*       4.5572007353E+01               0
GRID*               1007               0-9.618235294E+000.0000000000E+00+
*       4.5562058824E+01               0
GRID*               1008               0-9.617191176E+000.0000000000E+00+
*       4.5552110294E+01               0
GRID*               1009               0-9.616147059E+000.0000000000E+00+
*       4.5542161765E+01               0
GRID*               1010               0-9.615102941E+000.0000000000E+00+
*       4.5532213235E+01               0
GRID*               1011               0-9.614058824E+000.0000000000E+00+
*       4.5522264706E+01               0
GRID*               1012               0-9.613014706E+000.0000000000E+00+
*       4.5512316176E+01               0
GRID*               1013               0-9.611970588E+000.0000000000E+00+
*       4.5502367647E+01               0
GRID*               1014               0-9.610926471E+000.0000000000E+00+
*       4.5492419118E+01               0
GRID*               1015               0-9.609882353E+000.0000000000E+00+
*       4.5482470588E+01               0
GRID*               1016               0-9.608838235E+000.0000000000E+00+
*       4.5472522059E+01               0
GRID*               1017               0-9.607794118E+000.0000000000E+00+
*       4.5462573529E+01               0
GRID*               1018               0-9.606750000E+000.0000000000E+00+
*       4.5452625000E+01               0
GRID*               1019               0-9.605705882E+000.0000000000E+00+
*       4.5442676471E+01               0
GRID*               1020               0-9.604661765E+000.0000000000E+00+
*       4.5432727941E+01               0
GRID*               1021               0-9.603617647E+000.0000000000E+00+
*       4.5422779412E+01               0
GRID*               1022               0-9.602573529E+000.0000000000E+00+
*       4.5412830882E+01               0
GRID*               1023               0-9.601529412E+000.0000000000E+00+
*       4.5402882353E+01               0
GRID*               1024               0-9.600485294E+000.0000000000E+00+
*       4.5392933824E+01               0
GRID*               1025               0-9.599441176E+000.0000000000E+00+
*       4.5382985294E+01               0
GRID*               1026               0-9.598397059E+000.0000000000E+00+
*       4.5373036765E+01               0
GRID*               1027               0-9.597352941E+000.0000000000E+00+
*       4.5363088235E+01               0
GRID*               1028               0-9.596308824E+000.0000000000E+00+
*       4.5353139706E+01               0
GRID*               1029               0-9.595264706E+000.0000000000E+00+
*       4.5343191176E+01               0
GRID*               1030               0-9.594220588E+000.0000000000E+00+
*       4.5333242647E+01               0
GRID*               1031               0-9.593176471E+000.0000000000E+00+
*       4.5323294118E+01               0
GRID*               1032               0-9.592132353E+000.0000000000E+00+
*       4.5313345588E+01               0
GRID*               1033               0-9.591088235E+000.0000000000E+00+
*       4.5303397059E+01               0
GRID*               1034               0-9.590044118E+000.0000000000E+00+
*       4.5293448529E+01               0
GRID*               1035               0-9.589000000E+000.0000000000E+00+
*       4.5283500000E+01               0
GRID*               1036               0-9.587955882E+000.0000000000E+00+
*       4.5273551471E+01               0
GRID*               1037               0-9.586911765E+000.0000000000E+00+
*       4.5263602941E+01               0
GRID*               1038               0-9.585867647E+000.0000000000E+00+
*       4.5253654412E+01               0
GRID*               1039               0-9.584823529E+000.0000000000E+00+
*       4.5243705882E+01               0
GRID*               1040               0-9.583779412E+000.0000000000E+00+
*       4.5233757353E+01               0
GRID*               1041               0-9.582735294E+000.0000000000E+00+
*       4.5223808824E+01               0
GRID*               1042               0-9.581691176E+000.0000000000E+00+
*       4.5213860294E+01               0
GRID*               1043               0-9.580647059E+000.0000000000E+00+
*       4.5203911765E+01               0
GRID*               1044               0-9.579602941E+000.0000000000E+00+
*       4.5193963235E+01               0
GRID*               1045               0-9.578558824E+000.0000000000E+00+
*       4.5184014706E+01               0
GRID*               1046               0-9.577514706E+000.0000000000E+00+
*       4.5174066176E+01               0
GRID*               1047               0-9.576470588E+000.0000000000E+00+
*       4.5164117647E+01               0
GRID*               1048               0-9.575426471E+000.0000000000E+00+
*       4.5154169118E+01               0
GRID*               1049               0-9.574382353E+000.0000000000E+00+
*       4.5144220588E+01               0
GRID*               1050               0-9.573338235E+000.0000000000E+00+
*       4.5134272059E+01               0
GRID*               1051               0-9.572294118E+000.0000000000E+00+
*       4.5124323529E+01               0
GRID*               1052               0-9.571250000E+000.0000000000E+00+
*       4.5114375000E+01               0
GRID*               1053               0-9.570205882E+000.0000000000E+00+
*       4.5104426471E+01               0
GRID*               1054               0-9.569161765E+000.0000000000E+00+
*       4.5094477941E+01               0
GRID*               1055               0-9.568117647E+000.0000000000E+00+
*       4.5084529412E+01               0
GRID*               1056               0-9.567073529E+000.0000000000E+00+
*       4.5074580882E+01               0
GRID*               1057               0-9.566029412E+000.0000000000E+00+
*       4.5064632353E+01               0
GRID*               1058               0-9.564985294E+000.0000000000E+00+
*       4.5054683824E+01               0
GRID*               1059               0-9.563941176E+000.0000000000E+00+
*       4.5044735294E+01               0
GRID*               1060               0-9.562897059E+000.0000000000E+00+
*       4.5034786765E+01               0
GRID*               1061               0-9.561852941E+000.0000000000E+00+
*       4.5024838235E+01               0
GRID*               1062               0-9.560808824E+000.0000000000E+00+
*       4.5014889706E+01               0
GRID*               1063               0-9.559764706E+000.0000000000E+00+
*       4.5004941176E+01               0
GRID*               1064               0-9.558720588E+000.0000000000E+00+
*       4.4994992647E+01               0
GRID*               1065               0-9.557676471E+000.0000000000E+00+
*       4.4985044118E+01               0
GRID*               1066               0-9.556632353E+000.0000000000E+00+
*       4.4975095588E+01               0
GRID*               1067               0-9.555588235E+000.0000000000E+00+
*       4.4965147059E+01               0
GRID*               1068               0-9.554544118E+000.0000000000E+00+
*       4.4955198529E+01               0
GRID*               1069               0-9.553500000E+000.0000000000E+00+
*       4.4945250000E+01               0
GRID*               1070               0-9.552455882E+000.0000000000E+00+
*       4.4935301471E+01               0
GRID*               1071               0-9.551411765E+000.0000000000E+00+
*       4.4925352941E+01               0
GRID*               1072               0-9.550367647E+000.0000000000E+00+
*       4.4915404412E+01               0
GRID*               1073               0-9.549323529E+000.0000000000E+00+
*       4.4905455882E+01               0
GRID*               1074               0-9.548279412E+000.0000000000E+00+
*       4.4895507353E+01               0
GRID*               1075               0-9.547235294E+000.0000000000E+00+
*       4.4885558824E+01               0
GRID*               1076               0-9.546191176E+000.0000000000E+00+
*       4.4875610294E+01               0
GRID*               1077               0-9.545147059E+000.0000000000E+00+
*       4.4865661765E+01               0
GRID*               1078               0-9.544102941E+000.0000000000E+00+
*       4.4855713235E+01               0
GRID*               1079               0-9.543058824E+000.0000000000E+00+
*       4.4845764706E+01               0
GRID*               1080               0-9.542014706E+000.0000000000E+00+
*       4.4835816176E+01               0
GRID*               1081               0-9.540970588E+000.0000000000E+00+
*       4.4825867647E+01               0
GRID*               1082               0-9.539926471E+000.0000000000E+00+
*       4.4815919118E+01               0
GRID*               1083               0-9.538882353E+000.0000000000E+00+
*       4.4805970588E+01               0
GRID*               1084               0-9.537838235E+000.0000000000E+00+
*       4.4796022059E+01               0
GRID*               1085               0-9.536794118E+000.0000000000E+00+
*       4.4786073529E+01               0
GRID*               1086               0-9.535750000E+000.0000000000E+00+
*       4.4776125000E+01               0
GRID*               1087               0-9.534705882E+000.0000000000E+00+
*       4.4766176471E+01               0
GRID*               1088               0-9.533661765E+000.0000000000E+00+
*       4.4756227941E+01               0
GRID*               1089               0-9.532617647E+000.0000000000E+00+
*       4.4746279412E+01               0
GRID*               1090               0-9.531573529E+000.0000000000E+00+
*       4.4736330882E+01               0
GRID*               1091               0-9.530529412E+000.0000000000E+00+
*       4.4726382353E+01               0
GRID*               1092               0-9.529485294E+000.0000000000E+00+
*       4.4716433824E+01               0
GRID*               1093               0-9.528441176E+000.0000000000E+00+
*       4.4706485294E+01               0
GRID*               1094               0-9.527397059E+000.0000000000E+00+
*       4.4696536765E+01               0
GRID*               1095               0-9.526352941E+000.0000000000E+00+
*       4.4686588235E+01               0
GRID*               1096               0-9.525308824E+000.0000000000E+00+
*       4.4676639706E+01               0
GRID*               1097               0-9.524264706E+000.0000000000E+00+
*       4.4666691176E+01               0
GRID*               1098               0-9.523220588E+000.0000000000E+00+
*       4.4656742647E+01               0
GRID*               1099               0-9.522176471E+000.0000000000E+00+
*       4.4646794118E+01               0
GRID*               1100               0-9.521132353E+000.0000000000E+00+
*       4.4636845588E+01               0
GRID*               1101               0-9.520088235E+000.0000000000E+00+
*       4.4626897059E+01               0
GRID*               1102               0-9.519044118E+000.0000000000E+00+
*       4.4616948529E+01               0
GRID*               1103               0-9.518000000E+000.0000000000E+00+
*       4.4607000000E+01               0
GRID*               1104               0-9.516955882E+000.0000000000E+00+
*       4.4597051471E+01               0
GRID*               1105               0-9.515911765E+000.0000000000E+00+
*       4.4587102941E+01               0
GRID*               1106               0-9.514867647E+000.0000000000E+00+
*       4.4577154412E+01               0
GRID*               1107               0-9.513823529E+000.0000000000E+00+
*       4.4567205882E+01               0
GRID*               1108               0-9.512779412E+000.0000000000E+00+
*       4.4557257353E+01               0
GRID*               1109               0-9.511735294E+000.0000000000E+00+
*       4.4547308824E+01               0
GRID*               1110               0-9.510691176E+000.0000000000E+00+
*       4.4537360294E+01               0
GRID*               1111               0-9.509647059E+000.0000000000E+00+
*       4.4527411765E+01               0
GRID*               1112               0-9.508602941E+000.0000000000E+00+
*       4.4517463235E+01               0
GRID*               1113               0-9.507558824E+000.0000000000E+00+
*       4.4507514706E+01               0
GRID*               1114               0-9.506514706E+000.0000000000E+00+
*       4.4497566176E+01               0
GRID*               1115               0-9.505470588E+000.0000000000E+00+
*       4.4487617647E+01               0
GRID*               1116               0-9.504426471E+000.0000000000E+00+
*       4.4477669118E+01               0
GRID*               1117               0-9.503382353E+000.0000000000E+00+
*       4.4467720588E+01               0
GRID*               1118               0-9.502338235E+000.0000000000E+00+
*       4.4457772059E+01               0
GRID*               1119               0-9.501294118E+000.0000000000E+00+
*       4.4447823529E+01               0
GRID*               1120               0-9.500250000E+000.0000000000E+00+
*       4.4437875000E+01               0
GRID*               1121               0-9.499205882E+000.0000000000E+00+
*       4.4427926471E+01               0
GRID*               1122               0-9.498161765E+000.0000000000E+00+
*       4.4417977941E+01               0
GRID*               1123               0-9.497117647E+000.0000000000E+00+
*       4.4408029412E+01               0
GRID*               1124               0-9.496073529E+000.0000000000E+00+
*       4.4398080882E+01               0
GRID*               1125               0-9.495029412E+000.0000000000E+00+
*       4.4388132353E+01               0
GRID*               1126               0-9.493985294E+000.0000000000E+00+
*       4.4378183824E+01               0
GRID*               1127               0-9.492941176E+000.0000000000E+00+
*       4.4368235294E+01               0
GRID*               1128               0-9.491897059E+000.0000000000E+00+
*       4.4358286765E+01               0
GRID*               1129               0-9.490852941E+000.0000000000E+00+
*       4.4348338235E+01               0
GRID*               1130               0-9.489808824E+000.0000000000E+00+
*       4.4338389706E+01               0
GRID*               1131               0-9.488764706E+000.0000000000E+00+
*       4.4328441176E+01               0
GRID*               1132               0-9.487720588E+000.0000000000E+00+
*       4.4318492647E+01               0
GRID*               1133               0-9.486676471E+000.0000000000E+00+
*       4.4308544118E+01               0
GRID*               1134               0-9.485632353E+000.0000000000E+00+
*       4.4298595588E+01               0
GRID*               1135               0-9.484588235E+000.0000000000E+00+
*       4.4288647059E+01               0
GRID*               1136               0-9.483544118E+000.0000000000E+00+
*       4.4278698529E+01               0
GRID*               1137               0-9.482500000E+000.0000000000E+00+
*       4.4268750000E+01               0
GRID*               1138               0-9.481455882E+000.0000000000E+00+
*       4.4258801471E+01               0
GRID*               1139               0-9.480411765E+000.0000000000E+00+
*       4.4248852941E+01               0
GRID*               1140               0-9.479367647E+000.0000000000E+00+
*       4.4238904412E+01               0
GRID*               1141               0-9.478323529E+000.0000000000E+00+
*       4.4228955882E+01               0
GRID*               1142               0-9.477279412E+000.0000000000E+00+
*       4.4219007353E+01               0
GRID*               1143               0-9.476235294E+000.0000000000E+00+
*       4.4209058824E+01               0
GRID*               1144               0-9.475191176E+000.0000000000E+00+
*       4.4199110294E+01               0
GRID*               1145               0-9.474147059E+000.0000000000E+00+
*       4.4189161765E+01               0
GRID*               1146               0-9.473102941E+000.0000000000E+00+
*       4.4179213235E+01               0
GRID*               1147               0-9.472058824E+000.0000000000E+00+
*       4.4169264706E+01               0
GRID*               1148               0-9.471014706E+000.0000000000E+00+
*       4.4159316176E+01               0
GRID*               1149               0-9.469970588E+000.0000000000E+00+
*       4.4149367647E+01               0
GRID*               1150               0-9.468926471E+000.0000000000E+00+
*       4.4139419118E+01               0
GRID*               1151               0-9.467882353E+000.0000000000E+00+
*       4.4129470588E+01               0
GRID*               1152               0-9.466838235E+000.0000000000E+00+
*       4.4119522059E+01               0
GRID*               1153               0-9.465794118E+000.0000000000E+00+
*       4.4109573529E+01               0
GRID*               1154               0-9.464750000E+000.0000000000E+00+
*       4.4099625000E+01               0
GRID*               1155               0-9.463705882E+000.0000000000E+00+
*       4.4089676471E+01               0
GRID*               1156               0-9.462661765E+000.0000000000E+00+
*       4.4079727941E+01               0
GRID*               1157               0-9.461617647E+000.0000000000E+00+
*       4.4069779412E+01               0
GRID*               1158               0-9.460573529E+000.0000000000E+00+
*       4.4059830882E+01               0
GRID*               1159               0-9.459529412E+000.0000000000E+00+
*       4.4049882353E+01               0
GRID*               1160               0-9.458485294E+000.0000000000E+00+
*       4.4039933824E+01               0
GRID*               1161               0-9.457441176E+000.0000000000E+00+
*       4.4029985294E+01               0
GRID*               1162               0-9.456397059E+000.0000000000E+00+
*       4.4020036765E+01               0
GRID*               1163               0-9.455352941E+000.0000000000E+00+
*       4.4010088235E+01               0
GRID*               1164               0-9.454308824E+000.0000000000E+00+
*       4.4000139706E+01               0
GRID*               1165               0-9.453264706E+000.0000000000E+00+
*       4.3990191176E+01               0
GRID*               1166               0-9.452220588E+000.0000000000E+00+
*       4.3980242647E+01               0
GRID*               1167               0-9.451176471E+000.0000000000E+00+
*       4.3970294118E+01               0
GRID*               1168               0-9.450132353E+000.0000000000E+00+
*       4.3960345588E+01               0
GRID*               1169               0-9.449088235E+000.0000000000E+00+
*       4.3950397059E+01               0
GRID*               1170               0-9.448044118E+000.0000000000E+00+
*       4.3940448529E+01               0
GRID*               1171               0-9.447000000E+000.0000000000E+00+
*       4.3930500000E+01               0
GRID*               1172               0-9.445955882E+000.0000000000E+00+
*       4.3920551471E+01               0
GRID*               1173               0-9.444911765E+000.0000000000E+00+
*       4.3910602941E+01               0
GRID*               1174               0-9.443867647E+000.0000000000E+00+
*       4.3900654412E+01               0
GRID*               1175               0-9.442823529E+000.0000000000E+00+
*       4.3890705882E+01               0
GRID*               1176               0-9.441779412E+000.0000000000E+00+
*       4.3880757353E+01               0
GRID*               1177               0-9.440735294E+000.0000000000E+00+
*       4.3870808824E+01               0
GRID*               1178               0-9.439691176E+000.0000000000E+00+
*       4.3860860294E+01               0
GRID*               1179               0-9.438647059E+000.0000000000E+00+
*       4.3850911765E+01               0
GRID*               1180               0-9.437602941E+000.0000000000E+00+
*       4.3840963235E+01               0
GRID*               1181               0-9.436558824E+000.0000000000E+00+
*       4.3831014706E+01               0
GRID*               1182               0-9.435514706E+000.0000000000E+00+
*       4.3821066176E+01               0
GRID*               1183               0-9.434470588E+000.0000000000E+00+
*       4.3811117647E+01               0
GRID*               1184               0-9.433426471E+000.0000000000E+00+
*       4.3801169118E+01               0
GRID*               1185               0-9.432382353E+000.0000000000E+00+
*       4.3791220588E+01               0
GRID*               1186               0-9.431338235E+000.0000000000E+00+
*       4.3781272059E+01               0
GRID*               1187               0-9.430294118E+000.0000000000E+00+
*       4.3771323529E+01               0
GRID*               1188               0-9.429250000E+000.0000000000E+00+
*       4.3761375000E+01               0
GRID*               1189               0-9.428205882E+000.0000000000E+00+
*       4.3751426471E+01               0
GRID*               1190               0-9.427161765E+000.0000000000E+00+
*       4.3741477941E+01               0
GRID*               1191               0-9.426117647E+000.0000000000E+00+
*       4.3731529412E+01               0
GRID*               1192               0-9.425073529E+000.0000000000E+00+
*       4.3721580882E+01               0
GRID*               1193               0-9.424029412E+000.0000000000E+00+
*       4.3711632353E+01               0
GRID*               1194               0-9.422985294E+000.0000000000E+00+
*       4.3701683824E+01               0
GRID*               1195               0-9.421941176E+000.0000000000E+00+
*       4.3691735294E+01               0
GRID*               1196               0-9.420897059E+000.0000000000E+00+
*       4.3681786765E+01               0
GRID*               1197               0-9.419852941E+000.0000000000E+00+
*       4.3671838235E+01               0
GRID*               1198               0-9.418808824E+000.0000000000E+00+
*       4.3661889706E+01               0
GRID*               1199               0-9.417764706E+000.0000000000E+00+
*       4.3651941176E+01               0
GRID*               1200               0-9.416720588E+000.0000000000E+00+
*       4.3641992647E+01               0
GRID*               1201               0-9.415676471E+000.0000000000E+00+
*       4.3632044118E+01               0
GRID*               1202               0-9.414632353E+000.0000000000E+00+
*       4.3622095588E+01               0
GRID*               1203               0-9.413588235E+000.0000000000E+00+
*       4.3612147059E+01               0
GRID*               1204               0-9.412544118E+000.0000000000E+00+
*       4.3602198529E+01               0
GRID*               1205               0-9.411500000E+000.0000000000E+00+
*       4.3592250000E+01               0
GRID*               1206               0-9.410455882E+000.0000000000E+00+
*       4.3582301471E+01               0
GRID*               1207               0-9.409411765E+000.0000000000E+00+
*       4.3572352941E+01               0
GRID*               1208               0-9.408367647E+000.0000000000E+00+
*       4.3562404412E+01               0
GRID*               1209               0-9.407323529E+000.0000000000E+00+
*       4.3552455882E+01               0
GRID*               1210               0-9.406279412E+000.0000000000E+00+
*       4.3542507353E+01               0
GRID*               1211               0-9.405235294E+000.0000000000E+00+
*       4.3532558824E+01               0
GRID*               1212               0-9.404191176E+000.0000000000E+00+
*       4.3522610294E+01               0
GRID*               1213               0-9.403147059E+000.0000000000E+00+
*       4.3512661765E+01               0
GRID*               1214               0-9.402102941E+000.0000000000E+00+
*       4.3502713235E+01               0
GRID*               1215               0-9.401058824E+000.0000000000E+00+
*       4.3492764706E+01               0
GRID*               1216               0-9.400014706E+000.0000000000E+00+
*       4.3482816176E+01               0
GRID*               1217               0-9.398970588E+000.0000000000E+00+
*       4.3472867647E+01               0
GRID*               1218               0-9.397926471E+000.0000000000E+00+
*       4.3462919118E+01               0
GRID*               1219               0-9.396882353E+000.0000000000E+00+
*       4.3452970588E+01               0
GRID*               1220               0-9.395838235E+000.0000000000E+00+
*       4.3443022059E+01               0
GRID*               1221               0-9.394794118E+000.0000000000E+00+
*       4.3433073529E+01               0
GRID*               1222               0-9.393750000E+000.0000000000E+00+
*       4.3423125000E+01               0
GRID*               1223               0-9.392705882E+000.0000000000E+00+
*       4.3413176471E+01               0
GRID*               1224               0-9.391661765E+000.0000000000E+00+
*       4.3403227941E+01               0
GRID*               1225               0-9.390617647E+000.0000000000E+00+
*       4.3393279412E+01               0
GRID*               1226               0-9.389573529E+000.0000000000E+00+
*       4.3383330882E+01               0
GRID*               1227               0-9.388529412E+000.0000000000E+00+
*       4.3373382353E+01               0
GRID*               1228               0-9.387485294E+000.0000000000E+00+
*       4.3363433824E+01               0
GRID*               1229               0-9.386441176E+000.0000000000E+00+
*       4.3353485294E+01               0
GRID*               1230               0-9.385397059E+000.0000000000E+00+
*       4.3343536765E+01               0
GRID*               1231               0-9.384352941E+000.0000000000E+00+
*       4.3333588235E+01               0
GRID*               1232               0-9.383308824E+000.0000000000E+00+
*       4.3323639706E+01               0
GRID*               1233               0-9.382264706E+000.0000000000E+00+
*       4.3313691176E+01               0
GRID*               1234               0-9.381220588E+000.0000000000E+00+
*       4.3303742647E+01               0
GRID*               1235               0-9.380176471E+000.0000000000E+00+
*       4.3293794118E+01               0
GRID*               1236               0-9.379132353E+000.0000000000E+00+
*       4.3283845588E+01               0
GRID*               1237               0-9.378088235E+000.0000000000E+00+
*       4.3273897059E+01               0
GRID*               1238               0-9.377044118E+000.0000000000E+00+
*       4.3263948529E+01               0
GRID*               1239               0-9.376000000E+000.0000000000E+00+
*       4.3254000000E+01               0
GRID*               1240               0-9.374955882E+000.0000000000E+00+
*       4.3244051471E+01               0
GRID*               1241               0-9.373911765E+000.0000000000E+00+
*       4.3234102941E+01               0
GRID*               1242               0-9.372867647E+000.0000000000E+00+
*       4.3224154412E+01               0
GRID*               1243               0-9.371823529E+000.0000000000E+00+
*       4.3214205882E+01               0
GRID*               1244               0-9.370779412E+000.0000000000E+00+
*       4.3204257353E+01               0
GRID*               1245               0-9.369735294E+000.0000000000E+00+
*       4.3194308824E+01               0
GRID*               1246               0-9.368691176E+000.0000000000E+00+
*       4.3184360294E+01               0
GRID*               1247               0-9.367647059E+000.0000000000E+00+
*       4.3174411765E+01               0
GRID*               1248               0-9.366602941E+000.0000000000E+00+
*       4.3164463235E+01               0
GRID*               1249               0-9.365558824E+000.0000000000E+00+
*       4.3154514706E+01               0
GRID*               1250               0-9.364514706E+000.0000000000E+00+
*       4.3144566176E+01               0
GRID*               1251               0-9.363470588E+000.0000000000E+00+
*       4.3134617647E+01               0
GRID*               1252               0-9.362426471E+000.0000000000E+00+
*       4.3124669118E+01               0
GRID*               1253               0-9.361382353E+000.0000000000E+00+
*       4.3114720588E+01               0
GRID*               1254               0-9.360338235E+000.0000000000E+00+
*       4.3104772059E+01               0
GRID*               1255               0-9.359294118E+000.0000000000E+00+
*       4.3094823529E+01               0
GRID*               1256               0-9.358250000E+000.0000000000E+00+
*       4.3084875000E+01               0
GRID*               1257               0-9.357205882E+000.0000000000E+00+
*       4.3074926471E+01               0
GRID*               1258               0-9.356161765E+000.0000000000E+00+
*       4.3064977941E+01               0
GRID*               1259               0-9.355117647E+000.0000000000E+00+
*       4.3055029412E+01               0
GRID*               1260               0-9.354073529E+000.0000000000E+00+
*       4.3045080882E+01               0
GRID*               1261               0-9.353029412E+000.0000000000E+00+
*       4.3035132353E+01               0
GRID*               1262               0-9.351985294E+000.0000000000E+00+
*       4.3025183824E+01               0
GRID*               1263               0-9.350941176E+000.0000000000E+00+
*       4.3015235294E+01               0
GRID*               1264               0-9.349897059E+000.0000000000E+00+
*       4.3005286765E+01               0
GRID*               1265               0-9.348852941E+000.0000000000E+00+
*       4.2995338235E+01               0
GRID*               1266               0-9.347808824E+000.0000000000E+00+
*       4.2985389706E+01               0
GRID*               1267               0-9.346764706E+000.0000000000E+00+
*       4.2975441176E+01               0
GRID*               1268               0-9.345720588E+000.0000000000E+00+
*       4.2965492647E+01               0
GRID*               1269               0-9.344676471E+000.0000000000E+00+
*       4.2955544118E+01               0
GRID*               1270               0-9.343632353E+000.0000000000E+00+
*       4.2945595588E+01               0
GRID*               1271               0-9.342588235E+000.0000000000E+00+
*       4.2935647059E+01               0
GRID*               1272               0-9.341544118E+000.0000000000E+00+
*       4.2925698529E+01               0
GRID*               1273               0-9.340500000E+000.0000000000E+00+
*       4.2915750000E+01               0
GRID*               1274               0-9.339455882E+000.0000000000E+00+
*       4.2905801471E+01               0
GRID*               1275               0-9.338411765E+000.0000000000E+00+
*       4.2895852941E+01               0
GRID*               1276               0-9.337367647E+000.0000000000E+00+
*       4.2885904412E+01               0
GRID*               1277               0-9.336323529E+000.0000000000E+00+
*       4.2875955882E+01               0
GRID*               1278               0-9.335279412E+000.0000000000E+00+
*       4.2866007353E+01               0
GRID*               1279               0-9.334235294E+000.0000000000E+00+
*       4.2856058824E+01               0
GRID*               1280               0-9.333191176E+000.0000000000E+00+
*       4.2846110294E+01               0
GRID*               1281               0-9.332147059E+000.0000000000E+00+
*       4.2836161765E+01               0
GRID*               1282               0-9.331102941E+000.0000000000E+00+
*       4.2826213235E+01               0
GRID*               1283               0-9.330058824E+000.0000000000E+00+
*       4.2816264706E+01               0
GRID*               1284               0-9.329014706E+000.0000000000E+00+
*       4.2806316176E+01               0
GRID*               1285               0-9.327970588E+000.0000000000E+00+
*       4.2796367647E+01               0
GRID*               1286               0-9.326926471E+000.0000000000E+00+
*       4.2786419118E+01               0
GRID*               1287               0-9.325882353E+000.0000000000E+00+
*       4.2776470588E+01               0
GRID*               1288               0-9.324838235E+000.0000000000E+00+
*       4.2766522059E+01               0
GRID*               1289               0-9.323794118E+000.0000000000E+00+
*       4.2756573529E+01               0
GRID*               1290               0-9.322750000E+000.0000000000E+00+
*       4.2746625000E+01               0
GRID*               1291               0-9.321705882E+000.0000000000E+00+
*       4.2736676471E+01               0
GRID*               1292               0-9.320661765E+000.0000000000E+00+
*       4.2726727941E+01               0
GRID*               1293               0-9.319617647E+000.0000000000E+00+
*       4.2716779412E+01               0
GRID*               1294               0-9.318573529E+000.0000000000E+00+
*       4.2706830882E+01               0
GRID*               1295               0-9.317529412E+000.0000000000E+00+
*       4.2696882353E+01               0
GRID*               1296               0-9.316485294E+000.0000000000E+00+
*       4.2686933824E+01               0
GRID*               1297               0-9.315441176E+000.0000000000E+00+
*       4.2676985294E+01               0
GRID*               1298               0-9.314397059E+000.0000000000E+00+
*       4.2667036765E+01               0
GRID*               1299               0-9.313352941E+000.0000000000E+00+
*       4.2657088235E+01               0
GRID*               1300               0-9.312308824E+000.0000000000E+00+
*       4.2647139706E+01               0
GRID*               1301               0-9.311264706E+000.0000000000E+00+
*       4.2637191176E+01               0
GRID*               1302               0-9.310220588E+000.0000000000E+00+
*       4.2627242647E+01               0
GRID*               1303               0-9.309176471E+000.0000000000E+00+
*       4.2617294118E+01               0
GRID*               1304               0-9.308132353E+000.0000000000E+00+
*       4.2607345588E+01               0
GRID*               1305               0-9.307088235E+000.0000000000E+00+
*       4.2597397059E+01               0
GRID*               1306               0-9.306044118E+000.0000000000E+00+
*       4.2587448529E+01               0
GRID*               1307               0-9.305000000E+000.0000000000E+00+
*       4.2577500000E+01               0
GRID*               1308               0-9.303955882E+000.0000000000E+00+
*       4.2567551471E+01               0
GRID*               1309               0-9.302911765E+000.0000000000E+00+
*       4.2557602941E+01               0
GRID*               1310               0-9.301867647E+000.0000000000E+00+
*       4.2547654412E+01               0
GRID*               1311               0-9.300823529E+000.0000000000E+00+
*       4.2537705882E+01               0
GRID*               1312               0-9.299779412E+000.0000000000E+00+
*       4.2527757353E+01               0
GRID*               1313               0-9.298735294E+000.0000000000E+00+
*       4.2517808824E+01               0
GRID*               1314               0-9.297691176E+000.0000000000E+00+
*       4.2507860294E+01               0
GRID*               1315               0-9.296647059E+000.0000000000E+00+
*       4.2497911765E+01               0
GRID*               1316               0-9.295602941E+000.0000000000E+00+
*       4.2487963235E+01               0
GRID*               1317               0-9.294558824E+000.0000000000E+00+
*       4.2478014706E+01               0
GRID*               1318               0-9.293514706E+000.0000000000E+00+
*       4.2468066176E+01               0
GRID*               1319               0-9.292470588E+000.0000000000E+00+
*       4.2458117647E+01               0
GRID*               1320               0-9.291426471E+000.0000000000E+00+
*       4.2448169118E+01               0
GRID*               1321               0-9.290382353E+000.0000000000E+00+
*       4.2438220588E+01               0
GRID*               1322               0-9.289338235E+000.0000000000E+00+
*       4.2428272059E+01               0
GRID*               1323               0-9.288294118E+000.0000000000E+00+
*       4.2418323529E+01               0
GRID*               1324               0-9.287250000E+000.0000000000E+00+
*       4.2408375000E+01               0
GRID*               1325               0-9.286205882E+000.0000000000E+00+
*       4.2398426471E+01               0
GRID*               1326               0-9.285161765E+000.0000000000E+00+
*       4.2388477941E+01               0
GRID*               1327               0-9.284117647E+000.0000000000E+00+
*       4.2378529412E+01               0
GRID*               1328               0-9.283073529E+000.0000000000E+00+
*       4.2368580882E+01               0
GRID*               1329               0-9.282029412E+000.0000000000E+00+
*       4.2358632353E+01               0
GRID*               1330               0-9.280985294E+000.0000000000E+00+
*       4.2348683824E+01               0
GRID*               1331               0-9.279941176E+000.0000000000E+00+
*       4.2338735294E+01               0
GRID*               1332               0-9.278897059E+000.0000000000E+00+
*       4.2328786765E+01               0
GRID*               1333               0-9.277852941E+000.0000000000E+00+
*       4.2318838235E+01               0
GRID*               1334               0-9.276808824E+000.0000000000E+00+
*       4.2308889706E+01               0
GRID*               1335               0-9.275764706E+000.0000000000E+00+
*       4.2298941176E+01               0
GRID*               1336               0-9.274720588E+000.0000000000E+00+
*       4.2288992647E+01               0
GRID*               1337               0-9.273676471E+000.0000000000E+00+
*       4.2279044118E+01               0
GRID*               1338               0-9.272632353E+000.0000000000E+00+
*       4.2269095588E+01               0
GRID*               1339               0-9.271588235E+000.0000000000E+00+
*       4.2259147059E+01               0
GRID*               1340               0-9.270544118E+000.0000000000E+00+
*       4.2249198529E+01               0
GRID*               1341               0-9.269500000E+000.0000000000E+00+
*       4.2239250000E+01               0
GRID*               1342               0-9.268455882E+000.0000000000E+00+
*       4.2229301471E+01               0
GRID*               1343               0-9.267411765E+000.0000000000E+00+
*       4.2219352941E+01               0
GRID*               1344               0-9.266367647E+000.0000000000E+00+
*       4.2209404412E+01               0
GRID*               1345               0-9.265323529E+000.0000000000E+00+
*       4.2199455882E+01               0
GRID*               1346               0-9.264279412E+000.0000000000E+00+
*       4.2189507353E+01               0
GRID*               1347               0-9.263235294E+000.0000000000E+00+
*       4.2179558824E+01               0
GRID*               1348               0-9.262191176E+000.0000000000E+00+
*       4.2169610294E+01               0
GRID*               1349               0-9.261147059E+000.0000000000E+00+
*       4.2159661765E+01               0
GRID*               1350               0-9.260102941E+000.0000000000E+00+
*       4.2149713235E+01               0
GRID*               1351               0-9.259058824E+000.0000000000E+00+
*       4.2139764706E+01               0
GRID*               1352               0-9.258014706E+000.0000000000E+00+
*       4.2129816176E+01               0
GRID*               1353               0-9.256970588E+000.0000000000E+00+
*       4.2119867647E+01               0
GRID*               1354               0-9.255926471E+000.0000000000E+00+
*       4.2109919118E+01               0
GRID*               1355               0-9.254882353E+000.0000000000E+00+
*       4.2099970588E+01               0
GRID*               1356               0-9.253838235E+000.0000000000E+00+
*       4.2090022059E+01               0
GRID*               1357               0-9.252794118E+000.0000000000E+00+
*       4.2080073529E+01               0
GRID*               1358               0-9.251750000E+000.0000000000E+00+
*       4.2070125000E+01               0
GRID*               1359               0-9.250705882E+000.0000000000E+00+
*       4.2060176471E+01               0
GRID*               1360               0-9.249661765E+000.0000000000E+00+
*       4.2050227941E+01               0
GRID*               1361               0-9.248617647E+000.0000000000E+00+
*       4.2040279412E+01               0
GRID*               1362               0-9.247573529E+000.0000000000E+00+
*       4.2030330882E+01               0
GRID*               1363               0-9.246529412E+000.0000000000E+00+
*       4.2020382353E+01               0
GRID*               1364               0-9.245485294E+000.0000000000E+00+
*       4.2010433824E+01               0
GRID*               1365               0-9.244441176E+000.0000000000E+00+
*       4.2000485294E+01               0
GRID*               1366               0-9.243397059E+000.0000000000E+00+
*       4.1990536765E+01               0
GRID*               1367               0-9.242352941E+000.0000000000E+00+
*       4.1980588235E+01               0
GRID*               1368               0-9.241308824E+000.0000000000E+00+
*       4.1970639706E+01               0
GRID*               1369               0-9.240264706E+000.0000000000E+00+
*       4.1960691176E+01               0
GRID*               1370               0-9.239220588E+000.0000000000E+00+
*       4.1950742647E+01               0
GRID*               1371               0-9.238176471E+000.0000000000E+00+
*       4.1940794118E+01               0
GRID*               1372               0-9.237132353E+000.0000000000E+00+
*       4.1930845588E+01               0
GRID*               1373               0-9.236088235E+000.0000000000E+00+
*       4.1920897059E+01               0
GRID*               1374               0-9.235044118E+000.0000000000E+00+
*       4.1910948529E+01               0
GRID*               1375               0-9.234000000E+000.0000000000E+00+
*       4.1901000000E+01               0
GRID*               1376               0-9.232955882E+000.0000000000E+00+
*       4.1891051471E+01               0
GRID*               1377               0-9.231911765E+000.0000000000E+00+
*       4.1881102941E+01               0
GRID*               1378               0-9.230867647E+000.0000000000E+00+
*       4.1871154412E+01               0
GRID*               1379               0-9.229823529E+000.0000000000E+00+
*       4.1861205882E+01               0
GRID*               1380               0-9.228779412E+000.0000000000E+00+
*       4.1851257353E+01               0
GRID*               1381               0-9.227735294E+000.0000000000E+00+
*       4.1841308824E+01               0
GRID*               1382               0-9.226691176E+000.0000000000E+00+
*       4.1831360294E+01               0
GRID*               1383               0-9.225647059E+000.0000000000E+00+
*       4.1821411765E+01               0
GRID*               1384               0-9.224602941E+000.0000000000E+00+
*       4.1811463235E+01               0
GRID*               1385               0-9.223558824E+000.0000000000E+00+
*       4.1801514706E+01               0
GRID*               1386               0-9.222514706E+000.0000000000E+00+
*       4.1791566176E+01               0
GRID*               1387               0-9.221470588E+000.0000000000E+00+
*       4.1781617647E+01               0
GRID*               1388               0-9.220426471E+000.0000000000E+00+
*       4.1771669118E+01               0
GRID*               1389               0-9.219382353E+000.0000000000E+00+
*       4.1761720588E+01               0
GRID*               1390               0-9.218338235E+000.0000000000E+00+
*       4.1751772059E+01               0
GRID*               1391               0-9.217294118E+000.0000000000E+00+
*       4.1741823529E+01               0
GRID*               1392               0-9.216250000E+000.0000000000E+00+
*       4.1731875000E+01               0
GRID*               1393               0-9.215205882E+000.0000000000E+00+
*       4.1721926471E+01               0
GRID*               1394               0-9.214161765E+000.0000000000E+00+
*       4.1711977941E+01               0
GRID*               1395               0-9.213117647E+000.0000000000E+00+
*       4.1702029412E+01               0
GRID*               1396               0-9.212073529E+000.0000000000E+00+
*       4.1692080882E+01               0
GRID*               1397               0-9.211029412E+000.0000000000E+00+
*       4.1682132353E+01               0
GRID*               1398               0-9.209985294E+000.0000000000E+00+
*       4.1672183824E+01               0
GRID*               1399               0-9.208941176E+000.0000000000E+00+
*       4.1662235294E+01               0
GRID*               1400               0-9.207897059E+000.0000000000E+00+
*       4.1652286765E+01               0
GRID*               1401               0-9.206852941E+000.0000000000E+00+
*       4.1642338235E+01               0
GRID*               1402               0-9.205808824E+000.0000000000E+00+
*       4.1632389706E+01               0
GRID*               1403               0-9.204764706E+000.0000000000E+00+
*       4.1622441176E+01               0
GRID*               1404               0-9.203720588E+000.0000000000E+00+
*       4.1612492647E+01               0
GRID*               1405               0-9.202676471E+000.0000000000E+00+
*       4.1602544118E+01               0
GRID*               1406               0-9.201632353E+000.0000000000E+00+
*       4.1592595588E+01               0
GRID*               1407               0-9.200588235E+000.0000000000E+00+
*       4.1582647059E+01               0
GRID*               1408               0-9.199544118E+000.0000000000E+00+
*       4.1572698529E+01               0
GRID*               1409               0-9.198500000E+000.0000000000E+00+
*       4.1562750000E+01               0
GRID*               1410               0-9.197455882E+000.0000000000E+00+
*       4.1552801471E+01               0
GRID*               1411               0-9.196411765E+000.0000000000E+00+
*       4.1542852941E+01               0
GRID*               1412               0-9.195367647E+000.0000000000E+00+
*       4.1532904412E+01               0
GRID*               1413               0-9.194323529E+000.0000000000E+00+
*       4.1522955882E+01               0
GRID*               1414               0-9.193279412E+000.0000000000E+00+
*       4.1513007353E+01               0
GRID*               1415               0-9.192235294E+000.0000000000E+00+
*       4.1503058824E+01               0
GRID*               1416               0-9.191191176E+000.0000000000E+00+
*       4.1493110294E+01               0
GRID*               1417               0-9.190147059E+000.0000000000E+00+
*       4.1483161765E+01               0
GRID*               1418               0-9.189102941E+000.0000000000E+00+
*       4.1473213235E+01               0
GRID*               1419               0-9.188058824E+000.0000000000E+00+
*       4.1463264706E+01               0
GRID*               1420               0-9.187014706E+000.0000000000E+00+
*       4.1453316176E+01               0
GRID*               1421               0-9.185970588E+000.0000000000E+00+
*       4.1443367647E+01               0
GRID*               1422               0-9.184926471E+000.0000000000E+00+
*       4.1433419118E+01               0
GRID*               1423               0-9.183882353E+000.0000000000E+00+
*       4.1423470588E+01               0
GRID*               1424               0-9.182838235E+000.0000000000E+00+
*       4.1413522059E+01               0
GRID*               1425               0-9.181794118E+000.0000000000E+00+
*       4.1403573529E+01               0
GRID*               1426               0-9.180750000E+000.0000000000E+00+
*       4.1393625000E+01               0
GRID*               1427               0-9.179705882E+000.0000000000E+00+
*       4.1383676471E+01               0
GRID*               1428               0-9.178661765E+000.0000000000E+00+
*       4.1373727941E+01               0
GRID*               1429               0-9.177617647E+000.0000000000E+00+
*       4.1363779412E+01               0
GRID*               1430               0-9.176573529E+000.0000000000E+00+
*       4.1353830882E+01               0
GRID*               1431               0-9.175529412E+000.0000000000E+00+
*       4.1343882353E+01               0
GRID*               1432               0-9.174485294E+000.0000000000E+00+
*       4.1333933824E+01               0
GRID*               1433               0-9.173441176E+000.0000000000E+00+
*       4.1323985294E+01               0
GRID*               1434               0-9.172397059E+000.0000000000E+00+
*       4.1314036765E+01               0
GRID*               1435               0-9.171352941E+000.0000000000E+00+
*       4.1304088235E+01               0
GRID*               1436               0-9.170308824E+000.0000000000E+00+
*       4.1294139706E+01               0
GRID*               1437               0-9.169264706E+000.0000000000E+00+
*       4.1284191176E+01               0
GRID*               1438               0-9.168220588E+000.0000000000E+00+
*       4.1274242647E+01               0
GRID*               1439               0-9.167176471E+000.0000000000E+00+
*       4.1264294118E+01               0
GRID*               1440               0-9.166132353E+000.0000000000E+00+
*       4.1254345588E+01               0
GRID*               1441               0-9.165088235E+000.0000000000E+00+
*       4.1244397059E+01               0
GRID*               1442               0-9.164044118E+000.0000000000E+00+
*       4.1234448529E+01               0
GRID*               1443               0-9.163000000E+000.0000000000E+00+
*       4.1224500000E+01               0
GRID*               1444               0-9.161955882E+000.0000000000E+00+
*       4.1214551471E+01               0
GRID*               1445               0-9.160911765E+000.0000000000E+00+
*       4.1204602941E+01               0
GRID*               1446               0-9.159867647E+000.0000000000E+00+
*       4.1194654412E+01               0
GRID*               1447               0-9.158823529E+000.0000000000E+00+
*       4.1184705882E+01               0
GRID*               1448               0-9.157779412E+000.0000000000E+00+
*       4.1174757353E+01               0
GRID*               1449               0-9.156735294E+000.0000000000E+00+
*       4.1164808824E+01               0
GRID*               1450               0-9.155691176E+000.0000000000E+00+
*       4.1154860294E+01               0
GRID*               1451               0-9.154647059E+000.0000000000E+00+
*       4.1144911765E+01               0
GRID*               1452               0-9.153602941E+000.0000000000E+00+
*       4.1134963235E+01               0
GRID*               1453               0-9.152558824E+000.0000000000E+00+
*       4.1125014706E+01               0
GRID*               1454               0-9.151514706E+000.0000000000E+00+
*       4.1115066176E+01               0
GRID*               1455               0-9.150470588E+000.0000000000E+00+
*       4.1105117647E+01               0
GRID*               1456               0-9.149426471E+000.0000000000E+00+
*       4.1095169118E+01               0
GRID*               1457               0-9.148382353E+000.0000000000E+00+
*       4.1085220588E+01               0
GRID*               1458               0-9.147338235E+000.0000000000E+00+
*       4.1075272059E+01               0
GRID*               1459               0-9.146294118E+000.0000000000E+00+
*       4.1065323529E+01               0
GRID*               1460               0-9.145250000E+000.0000000000E+00+
*       4.1055375000E+01               0
GRID*               1461               0-9.144205882E+000.0000000000E+00+
*       4.1045426471E+01               0
GRID*               1462               0-9.143161765E+000.0000000000E+00+
*       4.1035477941E+01               0
GRID*               1463               0-9.142117647E+000.0000000000E+00+
*       4.1025529412E+01               0
GRID*               1464               0-9.141073529E+000.0000000000E+00+
*       4.1015580882E+01               0
GRID*               1465               0-9.140029412E+000.0000000000E+00+
*       4.1005632353E+01               0
GRID*               1466               0-9.138985294E+000.0000000000E+00+
*       4.0995683824E+01               0
GRID*               1467               0-9.137941176E+000.0000000000E+00+
*       4.0985735294E+01               0
GRID*               1468               0-9.136897059E+000.0000000000E+00+
*       4.0975786765E+01               0
GRID*               1469               0-9.135852941E+000.0000000000E+00+
*       4.0965838235E+01               0
GRID*               1470               0-9.134808824E+000.0000000000E+00+
*       4.0955889706E+01               0
GRID*               1471               0-9.133764706E+000.0000000000E+00+
*       4.0945941176E+01               0
GRID*               1472               0-9.132720588E+000.0000000000E+00+
*       4.0935992647E+01               0
GRID*               1473               0-9.131676471E+000.0000000000E+00+
*       4.0926044118E+01               0
GRID*               1474               0-9.130632353E+000.0000000000E+00+
*       4.0916095588E+01               0
GRID*               1475               0-9.129588235E+000.0000000000E+00+
*       4.0906147059E+01               0
GRID*               1476               0-9.128544118E+000.0000000000E+00+
*       4.0896198529E+01               0
GRID*               1477               0-9.127500000E+000.0000000000E+00+
*       4.0886250000E+01               0
GRID*               1478               0-9.126455882E+000.0000000000E+00+
*       4.0876301471E+01               0
GRID*               1479               0-9.125411765E+000.0000000000E+00+
*       4.0866352941E+01               0
GRID*               1480               0-9.124367647E+000.0000000000E+00+
*       4.0856404412E+01               0
GRID*               1481               0-9.123323529E+000.0000000000E+00+
*       4.0846455882E+01               0
GRID*               1482               0-9.122279412E+000.0000000000E+00+
*       4.0836507353E+01               0
GRID*               1483               0-9.121235294E+000.0000000000E+00+
*       4.0826558824E+01               0
GRID*               1484               0-9.120191176E+000.0000000000E+00+
*       4.0816610294E+01               0
GRID*               1485               0-9.119147059E+000.0000000000E+00+
*       4.0806661765E+01               0
GRID*               1486               0-9.118102941E+000.0000000000E+00+
*       4.0796713235E+01               0
GRID*               1487               0-9.117058824E+000.0000000000E+00+
*       4.0786764706E+01               0
GRID*               1488               0-9.116014706E+000.0000000000E+00+
*       4.0776816176E+01               0
GRID*               1489               0-9.114970588E+000.0000000000E+00+
*       4.0766867647E+01               0
GRID*               1490               0-9.113926471E+000.0000000000E+00+
*       4.0756919118E+01               0
GRID*               1491               0-9.112882353E+000.0000000000E+00+
*       4.0746970588E+01               0
GRID*               1492               0-9.111838235E+000.0000000000E+00+
*       4.0737022059E+01               0
GRID*               1493               0-9.110794118E+000.0000000000E+00+
*       4.0727073529E+01               0
GRID*               1494               0-9.109750000E+000.0000000000E+00+
*       4.0717125000E+01               0
GRID*               1495               0-9.108705882E+000.0000000000E+00+
*       4.0707176471E+01               0
GRID*               1496               0-9.107661765E+000.0000000000E+00+
*       4.0697227941E+01               0
GRID*               1497               0-9.106617647E+000.0000000000E+00+
*       4.0687279412E+01               0
GRID*               1498               0-9.105573529E+000.0000000000E+00+
*       4.0677330882E+01               0
GRID*               1499               0-9.104529412E+000.0000000000E+00+
*       4.0667382353E+01               0
GRID*               1500               0-9.103485294E+000.0000000000E+00+
*       4.0657433824E+01               0
GRID*               1501               0-9.102441176E+000.0000000000E+00+
*       4.0647485294E+01               0
GRID*               1502               0-9.101397059E+000.0000000000E+00+
*       4.0637536765E+01               0
GRID*               1503               0-9.100352941E+000.0000000000E+00+
*       4.0627588235E+01               0
GRID*               1504               0-9.099308824E+000.0000000000E+00+
*       4.0617639706E+01               0
GRID*               1505               0-9.098264706E+000.0000000000E+00+
*       4.0607691176E+01               0
GRID*               1506               0-9.097220588E+000.0000000000E+00+
*       4.0597742647E+01               0
GRID*               1507               0-9.096176471E+000.0000000000E+00+
*       4.0587794118E+01               0
GRID*               1508               0-9.095132353E+000.0000000000E+00+
*       4.0577845588E+01               0
GRID*               1509               0-9.094088235E+000.0000000000E+00+
*       4.0567897059E+01               0
GRID*               1510               0-9.093044118E+000.0000000000E+00+
*       4.0557948529E+01               0
GRID*               1511               0-9.092000000E+000.0000000000E+00+
*       4.0548000000E+01               0
GRID*               1512               0-9.090955882E+000.0000000000E+00+
*       4.0538051471E+01               0
GRID*               1513               0-9.089911765E+000.0000000000E+00+
*       4.0528102941E+01               0
GRID*               1514               0-9.088867647E+000.0000000000E+00+
*       4.0518154412E+01               0
GRID*               1515               0-9.087823529E+000.0000000000E+00+
*       4.0508205882E+01               0
GRID*               1516               0-9.086779412E+000.0000000000E+00+
*       4.0498257353E+01               0
GRID*               1517               0-9.085735294E+000.0000000000E+00+
*       4.0488308824E+01               0
GRID*               1518               0-9.084691176E+000.0000000000E+00+
*       4.0478360294E+01               0
GRID*               1519               0-9.083647059E+000.0000000000E+00+
*       4.0468411765E+01               0
GRID*               1520               0-9.082602941E+000.0000000000E+00+
*       4.0458463235E+01               0
GRID*               1521               0-9.081558824E+000.0000000000E+00+
*       4.0448514706E+01               0
GRID*               1522               0-9.080514706E+000.0000000000E+00+
*       4.0438566176E+01               0
GRID*               1523               0-9.079470588E+000.0000000000E+00+
*       4.0428617647E+01               0
GRID*               1524               0-9.078426471E+000.0000000000E+00+
*       4.0418669118E+01               0
GRID*               1525               0-9.077382353E+000.0000000000E+00+
*       4.0408720588E+01               0
GRID*               1526               0-9.076338235E+000.0000000000E+00+
*       4.0398772059E+01               0
GRID*               1527               0-9.075294118E+000.0000000000E+00+
*       4.0388823529E+01               0
GRID*               1528               0-9.074250000E+000.0000000000E+00+
*       4.0378875000E+01               0
GRID*               1529               0-9.073205882E+000.0000000000E+00+
*       4.0368926471E+01               0
GRID*               1530               0-9.072161765E+000.0000000000E+00+
*       4.0358977941E+01               0
GRID*               1531               0-9.071117647E+000.0000000000E+00+
*       4.0349029412E+01               0
GRID*               1532               0-9.070073529E+000.0000000000E+00+
*       4.0339080882E+01               0
GRID*               1533               0-9.069029412E+000.0000000000E+00+
*       4.0329132353E+01               0
GRID*               1534               0-9.067985294E+000.0000000000E+00+
*       4.0319183824E+01               0
GRID*               1535               0-9.066941176E+000.0000000000E+00+
*       4.0309235294E+01               0
GRID*               1536               0-9.065897059E+000.0000000000E+00+
*       4.0299286765E+01               0
GRID*               1537               0-9.064852941E+000.0000000000E+00+
*       4.0289338235E+01               0
GRID*               1538               0-9.063808824E+000.0000000000E+00+
*       4.0279389706E+01               0
GRID*               1539               0-9.062764706E+000.0000000000E+00+
*       4.0269441176E+01               0
GRID*               1540               0-9.061720588E+000.0000000000E+00+
*       4.0259492647E+01               0
GRID*               1541               0-9.060676471E+000.0000000000E+00+
*       4.0249544118E+01               0
GRID*               1542               0-9.059632353E+000.0000000000E+00+
*       4.0239595588E+01               0
GRID*               1543               0-9.058588235E+000.0000000000E+00+
*       4.0229647059E+01               0
GRID*               1544               0-9.057544118E+000.0000000000E+00+
*       4.0219698529E+01               0
GRID*               1545               0-9.056500000E+000.0000000000E+00+
*       4.0209750000E+01               0
GRID*               1546               0-9.055455882E+000.0000000000E+00+
*       4.0199801471E+01               0
GRID*               1547               0-9.054411765E+000.0000000000E+00+
*       4.0189852941E+01               0
GRID*               1548               0-9.053367647E+000.0000000000E+00+
*       4.0179904412E+01               0
GRID*               1549               0-9.052323529E+000.0000000000E+00+
*       4.0169955882E+01               0
GRID*               1550               0-9.051279412E+000.0000000000E+00+
*       4.0160007353E+01               0
GRID*               1551               0-9.050235294E+000.0000000000E+00+
*       4.0150058824E+01               0
GRID*               1552               0-9.049191176E+000.0000000000E+00+
*       4.0140110294E+01               0
GRID*               1553               0-9.048147059E+000.0000000000E+00+
*       4.0130161765E+01               0
GRID*               1554               0-9.047102941E+000.0000000000E+00+
*       4.0120213235E+01               0
GRID*               1555               0-9.046058824E+000.0000000000E+00+
*       4.0110264706E+01               0
GRID*               1556               0-9.045014706E+000.0000000000E+00+
*       4.0100316176E+01               0
GRID*               1557               0-9.043970588E+000.0000000000E+00+
*       4.0090367647E+01               0
GRID*               1558               0-9.042926471E+000.0000000000E+00+
*       4.0080419118E+01               0
GRID*               1559               0-9.041882353E+000.0000000000E+00+
*       4.0070470588E+01               0
GRID*               1560               0-9.040838235E+000.0000000000E+00+
*       4.0060522059E+01               0
GRID*               1561               0-9.039794118E+000.0000000000E+00+
*       4.0050573529E+01               0
GRID*               1562               0-9.038750000E+000.0000000000E+00+
*       4.0040625000E+01               0
GRID*               1563               0-9.037705882E+000.0000000000E+00+
*       4.0030676471E+01               0
GRID*               1564               0-9.036661765E+000.0000000000E+00+
*       4.0020727941E+01               0
GRID*               1565               0-9.035617647E+000.0000000000E+00+
*       4.0010779412E+01               0
GRID*               1566               0-9.034573529E+000.0000000000E+00+
*       4.0000830882E+01               0
GRID*               1567               0-9.033529412E+000.0000000000E+00+
*       3.9990882353E+01               0
GRID*               1568               0-9.032485294E+000.0000000000E+00+
*       3.9980933824E+01               0
GRID*               1569               0-9.031441176E+000.0000000000E+00+
*       3.9970985294E+01               0
GRID*               1570               0-9.030397059E+000.0000000000E+00+
*       3.9961036765E+01               0
GRID*               1571               0-9.029352941E+000.0000000000E+00+
*       3.9951088235E+01               0
GRID*               1572               0-9.028308824E+000.0000000000E+00+
*       3.9941139706E+01               0
GRID*               1573               0-9.027264706E+000.0000000000E+00+
*       3.9931191176E+01               0
GRID*               1574               0-9.026220588E+000.0000000000E+00+
*       3.9921242647E+01               0
GRID*               1575               0-9.025176471E+000.0000000000E+00+
*       3.9911294118E+01               0
GRID*               1576               0-9.024132353E+000.0000000000E+00+
*       3.9901345588E+01               0
GRID*               1577               0-9.023088235E+000.0000000000E+00+
*       3.9891397059E+01               0
GRID*               1578               0-9.022044118E+000.0000000000E+00+
*       3.9881448529E+01               0
GRID*               1579               0-9.021000000E+000.0000000000E+00+
*       3.9871500000E+01               0
GRID*               1580               0-9.019955882E+000.0000000000E+00+
*       3.9861551471E+01               0
GRID*               1581               0-9.018911765E+000.0000000000E+00+
*       3.9851602941E+01               0
GRID*               1582               0-9.017867647E+000.0000000000E+00+
*       3.9841654412E+01               0
GRID*               1583               0-9.016823529E+000.0000000000E+00+
*       3.9831705882E+01               0
GRID*               1584               0-9.015779412E+000.0000000000E+00+
*       3.9821757353E+01               0
GRID*               1585               0-9.014735294E+000.0000000000E+00+
*       3.9811808824E+01               0
GRID*               1586               0-9.013691176E+000.0000000000E+00+
*       3.9801860294E+01               0
GRID*               1587               0-9.012647059E+000.0000000000E+00+
*       3.9791911765E+01               0
GRID*               1588               0-9.011602941E+000.0000000000E+00+
*       3.9781963235E+01               0
GRID*               1589               0-9.010558824E+000.0000000000E+00+
*       3.9772014706E+01               0
GRID*               1590               0-9.009514706E+000.0000000000E+00+
*       3.9762066176E+01               0
GRID*               1591               0-9.008470588E+000.0000000000E+00+
*       3.9752117647E+01               0
GRID*               1592               0-9.007426471E+000.0000000000E+00+
*       3.9742169118E+01               0
GRID*               1593               0-9.006382353E+000.0000000000E+00+
*       3.9732220588E+01               0
GRID*               1594               0-9.005338235E+000.0000000000E+00+
*       3.9722272059E+01               0
GRID*               1595               0-9.004294118E+000.0000000000E+00+
*       3.9712323529E+01               0
GRID*               1596               0-9.003250000E+000.0000000000E+00+
*       3.9702375000E+01               0
GRID*               1597               0-9.002205882E+000.0000000000E+00+
*       3.9692426471E+01               0
GRID*               1598               0-9.001161765E+000.0000000000E+00+
*       3.9682477941E+01               0
GRID*               1599               0-9.000117647E+000.0000000000E+00+
*       3.9672529412E+01               0
GRID*               1600               0-8.999073529E+000.0000000000E+00+
*       3.9662580882E+01               0
GRID*               1601               0-8.998029412E+000.0000000000E+00+
*       3.9652632353E+01               0
GRID*               1602               0-8.996985294E+000.0000000000E+00+
*       3.9642683824E+01               0
GRID*               1603               0-8.995941176E+000.0000000000E+00+
*       3.9632735294E+01               0
GRID*               1604               0-8.994897059E+000.0000000000E+00+
*       3.9622786765E+01               0
GRID*               1605               0-8.993852941E+000.0000000000E+00+
*       3.9612838235E+01               0
GRID*               1606               0-8.992808824E+000.0000000000E+00+
*       3.9602889706E+01               0
GRID*               1607               0-8.991764706E+000.0000000000E+00+
*       3.9592941176E+01               0
GRID*               1608               0-8.990720588E+000.0000000000E+00+
*       3.9582992647E+01               0
GRID*               1609               0-8.989676471E+000.0000000000E+00+
*       3.9573044118E+01               0
GRID*               1610               0-8.988632353E+000.0000000000E+00+
*       3.9563095588E+01               0
GRID*               1611               0-8.987588235E+000.0000000000E+00+
*       3.9553147059E+01               0
GRID*               1612               0-8.986544118E+000.0000000000E+00+
*       3.9543198529E+01               0
GRID*               1613               0-8.985500000E+000.0000000000E+00+
*       3.9533250000E+01               0
GRID*               1614               0-8.984455882E+000.0000000000E+00+
*       3.9523301471E+01               0
GRID*               1615               0-8.983411765E+000.0000000000E+00+
*       3.9513352941E+01               0
GRID*               1616               0-8.982367647E+000.0000000000E+00+
*       3.9503404412E+01               0
GRID*               1617               0-8.981323529E+000.0000000000E+00+
*       3.9493455882E+01               0
GRID*               1618               0-8.980279412E+000.0000000000E+00+
*       3.9483507353E+01               0
GRID*               1619               0-8.979235294E+000.0000000000E+00+
*       3.9473558824E+01               0
GRID*               1620               0-8.978191176E+000.0000000000E+00+
*       3.9463610294E+01               0
GRID*               1621               0-8.977147059E+000.0000000000E+00+
*       3.9453661765E+01               0
GRID*               1622               0-8.976102941E+000.0000000000E+00+
*       3.9443713235E+01               0
GRID*               1623               0-8.975058824E+000.0000000000E+00+
*       3.9433764706E+01               0
GRID*               1624               0-8.974014706E+000.0000000000E+00+
*       3.9423816176E+01               0
GRID*               1625               0-8.972970588E+000.0000000000E+00+
*       3.9413867647E+01               0
GRID*               1626               0-8.971926471E+000.0000000000E+00+
*       3.9403919118E+01               0
GRID*               1627               0-8.970882353E+000.0000000000E+00+
*       3.9393970588E+01               0
GRID*               1628               0-8.969838235E+000.0000000000E+00+
*       3.9384022059E+01               0
GRID*               1629               0-8.968794118E+000.0000000000E+00+
*       3.9374073529E+01               0
GRID*               1630               0-8.967750000E+000.0000000000E+00+
*       3.9364125000E+01               0
GRID*               1631               0-8.966705882E+000.0000000000E+00+
*       3.9354176471E+01               0
GRID*               1632               0-8.965661765E+000.0000000000E+00+
*       3.9344227941E+01               0
GRID*               1633               0-8.964617647E+000.0000000000E+00+
*       3.9334279412E+01               0
GRID*               1634               0-8.963573529E+000.0000000000E+00+
*       3.9324330882E+01               0
GRID*               1635               0-8.962529412E+000.0000000000E+00+
*       3.9314382353E+01               0
GRID*               1636               0-8.961485294E+000.0000000000E+00+
*       3.9304433824E+01               0
GRID*               1637               0-8.960441176E+000.0000000000E+00+
*       3.9294485294E+01               0
GRID*               1638               0-8.959397059E+000.0000000000E+00+
*       3.9284536765E+01               0
GRID*               1639               0-8.958352941E+000.0000000000E+00+
*       3.9274588235E+01               0
GRID*               1640               0-8.957308824E+000.0000000000E+00+
*       3.9264639706E+01               0
GRID*               1641               0-8.956264706E+000.0000000000E+00+
*       3.9254691176E+01               0
GRID*               1642               0-8.955220588E+000.0000000000E+00+
*       3.9244742647E+01               0
GRID*               1643               0-8.954176471E+000.0000000000E+00+
*       3.9234794118E+01               0
GRID*               1644               0-8.953132353E+000.0000000000E+00+
*       3.9224845588E+01               0
GRID*               1645               0-8.952088235E+000.0000000000E+00+
*       3.9214897059E+01               0
GRID*               1646               0-8.951044118E+000.0000000000E+00+
*       3.9204948529E+01               0
GRID*               1647               0-8.950000000E+000.0000000000E+00+
*       3.9195000000E+01               0
GRID*               1648               0-8.948955882E+000.0000000000E+00+
*       3.9185051471E+01               0
GRID*               1649               0-8.947911765E+000.0000000000E+00+
*       3.9175102941E+01               0
GRID*               1650               0-8.946867647E+000.0000000000E+00+
*       3.9165154412E+01               0
GRID*               1651               0-8.945823529E+000.0000000000E+00+
*       3.9155205882E+01               0
GRID*               1652               0-8.944779412E+000.0000000000E+00+
*       3.9145257353E+01               0
GRID*               1653               0-8.943735294E+000.0000000000E+00+
*       3.9135308824E+01               0
GRID*               1654               0-8.942691176E+000.0000000000E+00+
*       3.9125360294E+01               0
GRID*               1655               0-8.941647059E+000.0000000000E+00+
*       3.9115411765E+01               0
GRID*               1656               0-8.940602941E+000.0000000000E+00+
*       3.9105463235E+01               0
GRID*               1657               0-8.939558824E+000.0000000000E+00+
*       3.9095514706E+01               0
GRID*               1658               0-8.938514706E+000.0000000000E+00+
*       3.9085566176E+01               0
GRID*               1659               0-8.937470588E+000.0000000000E+00+
*       3.9075617647E+01               0
GRID*               1660               0-8.936426471E+000.0000000000E+00+
*       3.9065669118E+01               0
GRID*               1661               0-8.935382353E+000.0000000000E+00+
*       3.9055720588E+01               0
GRID*               1662               0-8.934338235E+000.0000000000E+00+
*       3.9045772059E+01               0
GRID*               1663               0-8.933294118E+000.0000000000E+00+
*       3.9035823529E+01               0
GRID*               1664               0-8.932250000E+000.0000000000E+00+
*       3.9025875000E+01               0
GRID*               1665               0-8.931205882E+000.0000000000E+00+
*       3.9015926471E+01               0
GRID*               1666               0-8.930161765E+000.0000000000E+00+
*       3.9005977941E+01               0
GRID*               1667               0-8.929117647E+000.0000000000E+00+
*       3.8996029412E+01               0
GRID*               1668               0-8.928073529E+000.0000000000E+00+
*       3.8986080882E+01               0
GRID*               1669               0-8.927029412E+000.0000000000E+00+
*       3.8976132353E+01               0
GRID*               1670               0-8.925985294E+000.0000000000E+00+
*       3.8966183824E+01               0
GRID*               1671               0-8.924941176E+000.0000000000E+00+
*       3.8956235294E+01               0
GRID*               1672               0-8.923897059E+000.0000000000E+00+
*       3.8946286765E+01               0
GRID*               1673               0-8.922852941E+000.0000000000E+00+
*       3.8936338235E+01               0
GRID*               1674               0-8.921808824E+000.0000000000E+00+
*       3.8926389706E+01               0
GRID*               1675               0-8.920764706E+000.0000000000E+00+
*       3.8916441176E+01               0
GRID*               1676               0-8.919720588E+000.0000000000E+00+
*       3.8906492647E+01               0
GRID*               1677               0-8.918676471E+000.0000000000E+00+
*       3.8896544118E+01               0
GRID*               1678               0-8.917632353E+000.0000000000E+00+
*       3.8886595588E+01               0
GRID*               1679               0-8.916588235E+000.0000000000E+00+
*       3.8876647059E+01               0
GRID*               1680               0-8.915544118E+000.0000000000E+00+
*       3.8866698529E+01               0
GRID*               1681               0-8.914500000E+000.0000000000E+00+
*       3.8856750000E+01               0
GRID*               1682               0-8.913455882E+000.0000000000E+00+
*       3.8846801471E+01               0
GRID*               1683               0-8.912411765E+000.0000000000E+00+
*       3.8836852941E+01               0
GRID*               1684               0-8.911367647E+000.0000000000E+00+
*       3.8826904412E+01               0
GRID*               1685               0-8.910323529E+000.0000000000E+00+
*       3.8816955882E+01               0
GRID*               1686               0-8.909279412E+000.0000000000E+00+
*       3.8807007353E+01               0
GRID*               1687               0-8.908235294E+000.0000000000E+00+
*       3.8797058824E+01               0
GRID*               1688               0-8.907191176E+000.0000000000E+00+
*       3.8787110294E+01               0
GRID*               1689               0-8.906147059E+000.0000000000E+00+
*       3.8777161765E+01               0
GRID*               1690               0-8.905102941E+000.0000000000E+00+
*       3.8767213235E+01               0
GRID*               1691               0-8.904058824E+000.0000000000E+00+
*       3.8757264706E+01               0
GRID*               1692               0-8.903014706E+000.0000000000E+00+
*       3.8747316176E+01               0
GRID*               1693               0-8.901970588E+000.0000000000E+00+
*       3.8737367647E+01               0
GRID*               1694               0-8.900926471E+000.0000000000E+00+
*       3.8727419118E+01               0
GRID*               1695               0-8.899882353E+000.0000000000E+00+
*       3.8717470588E+01               0
GRID*               1696               0-8.898838235E+000.0000000000E+00+
*       3.8707522059E+01               0
GRID*               1697               0-8.897794118E+000.0000000000E+00+
*       3.8697573529E+01               0
GRID*               1698               0-8.896750000E+000.0000000000E+00+
*       3.8687625000E+01               0
GRID*               1699               0-8.895705882E+000.0000000000E+00+
*       3.8677676471E+01               0
GRID*               1700               0-8.894661765E+000.0000000000E+00+
*       3.8667727941E+01               0
GRID*               1701               0-8.893617647E+000.0000000000E+00+
*       3.8657779412E+01               0
GRID*               1702               0-8.892573529E+000.0000000000E+00+
*       3.8647830882E+01               0
GRID*               1703               0-8.891529412E+000.0000000000E+00+
*       3.8637882353E+01               0
GRID*               1704               0-8.890485294E+000.0000000000E+00+
*       3.8627933824E+01               0
GRID*               1705               0-8.889441176E+000.0000000000E+00+
*       3.8617985294E+01               0
GRID*               1706               0-8.888397059E+000.0000000000E+00+
*       3.8608036765E+01               0
GRID*               1707               0-8.887352941E+000.0000000000E+00+
*       3.8598088235E+01               0
GRID*               1708               0-8.886308824E+000.0000000000E+00+
*       3.8588139706E+01               0
GRID*               1709               0-8.885264706E+000.0000000000E+00+
*       3.8578191176E+01               0
GRID*               1710               0-8.884220588E+000.0000000000E+00+
*       3.8568242647E+01               0
GRID*               1711               0-8.883176471E+000.0000000000E+00+
*       3.8558294118E+01               0
GRID*               1712               0-8.882132353E+000.0000000000E+00+
*       3.8548345588E+01               0
GRID*               1713               0-8.881088235E+000.0000000000E+00+
*       3.8538397059E+01               0
GRID*               1714               0-8.880044118E+000.0000000000E+00+
*       3.8528448529E+01               0
GRID*               1715               0-8.879000000E+000.0000000000E+00+
*       3.8518500000E+01               0
GRID*               1716               0-8.877955882E+000.0000000000E+00+
*       3.8508551471E+01               0
GRID*               1717               0-8.876911765E+000.0000000000E+00+
*       3.8498602941E+01               0
GRID*               1718               0-8.875867647E+000.0000000000E+00+
*       3.8488654412E+01               0
GRID*               1719               0-8.874823529E+000.0000000000E+00+
*       3.8478705882E+01               0
GRID*               1720               0-8.873779412E+000.0000000000E+00+
*       3.8468757353E+01               0
GRID*               1721               0-8.872735294E+000.0000000000E+00+
*       3.8458808824E+01               0
GRID*               1722               0-8.871691176E+000.0000000000E+00+
*       3.8448860294E+01               0
GRID*               1723               0-8.870647059E+000.0000000000E+00+
*       3.8438911765E+01               0
GRID*               1724               0-8.869602941E+000.0000000000E+00+
*       3.8428963235E+01               0
GRID*               1725               0-8.868558824E+000.0000000000E+00+
*       3.8419014706E+01               0
GRID*               1726               0-8.867514706E+000.0000000000E+00+
*       3.8409066176E+01               0
GRID*               1727               0-8.866470588E+000.0000000000E+00+
*       3.8399117647E+01               0
GRID*               1728               0-8.865426471E+000.0000000000E+00+
*       3.8389169118E+01               0
GRID*               1729               0-8.864382353E+000.0000000000E+00+
*       3.8379220588E+01               0
GRID*               1730               0-8.863338235E+000.0000000000E+00+
*       3.8369272059E+01               0
GRID*               1731               0-8.862294118E+000.0000000000E+00+
*       3.8359323529E+01               0
GRID*               1732               0-8.861250000E+000.0000000000E+00+
*       3.8349375000E+01               0
GRID*               1733               0-8.860205882E+000.0000000000E+00+
*       3.8339426471E+01               0
GRID*               1734               0-8.859161765E+000.0000000000E+00+
*       3.8329477941E+01               0
GRID*               1735               0-8.858117647E+000.0000000000E+00+
*       3.8319529412E+01               0
GRID*               1736               0-8.857073529E+000.0000000000E+00+
*       3.8309580882E+01               0
GRID*               1737               0-8.856029412E+000.0000000000E+00+
*       3.8299632353E+01               0
GRID*               1738               0-8.854985294E+000.0000000000E+00+
*       3.8289683824E+01               0
GRID*               1739               0-8.853941176E+000.0000000000E+00+
*       3.8279735294E+01               0
GRID*               1740               0-8.852897059E+000.0000000000E+00+
*       3.8269786765E+01               0
GRID*               1741               0-8.851852941E+000.0000000000E+00+
*       3.8259838235E+01               0
GRID*               1742               0-8.850808824E+000.0000000000E+00+
*       3.8249889706E+01               0
GRID*               1743               0-8.849764706E+000.0000000000E+00+
*       3.8239941176E+01               0
GRID*               1744               0-8.848720588E+000.0000000000E+00+
*       3.8229992647E+01               0
GRID*               1745               0-8.847676471E+000.0000000000E+00+
*       3.8220044118E+01               0
GRID*               1746               0-8.846632353E+000.0000000000E+00+
*       3.8210095588E+01               0
GRID*               1747               0-8.845588235E+000.0000000000E+00+
*       3.8200147059E+01               0
GRID*               1748               0-8.844544118E+000.0000000000E+00+
*       3.8190198529E+01               0
GRID*               1749               0-8.843500000E+000.0000000000E+00+
*       3.8180250000E+01               0
GRID*               1750               0-8.842455882E+000.0000000000E+00+
*       3.8170301471E+01               0
GRID*               1751               0-8.841411765E+000.0000000000E+00+
*       3.8160352941E+01               0
GRID*               1752               0-8.840367647E+000.0000000000E+00+
*       3.8150404412E+01               0
GRID*               1753               0-8.839323529E+000.0000000000E+00+
*       3.8140455882E+01               0
GRID*               1754               0-8.838279412E+000.0000000000E+00+
*       3.8130507353E+01               0
GRID*               1755               0-8.837235294E+000.0000000000E+00+
*       3.8120558824E+01               0
GRID*               1756               0-8.836191176E+000.0000000000E+00+
*       3.8110610294E+01               0
GRID*               1757               0-8.835147059E+000.0000000000E+00+
*       3.8100661765E+01               0
GRID*               1758               0-8.834102941E+000.0000000000E+00+
*       3.8090713235E+01               0
GRID*               1759               0-8.833058824E+000.0000000000E+00+
*       3.8080764706E+01               0
GRID*               1760               0-8.832014706E+000.0000000000E+00+
*       3.8070816176E+01               0
GRID*               1761               0-8.830970588E+000.0000000000E+00+
*       3.8060867647E+01               0
GRID*               1762               0-8.829926471E+000.0000000000E+00+
*       3.8050919118E+01               0
GRID*               1763               0-8.828882353E+000.0000000000E+00+
*       3.8040970588E+01               0
GRID*               1764               0-8.827838235E+000.0000000000E+00+
*       3.8031022059E+01               0
GRID*               1765               0-8.826794118E+000.0000000000E+00+
*       3.8021073529E+01               0
GRID*               1766               0-8.825750000E+000.0000000000E+00+
*       3.8011125000E+01               0
GRID*               1767               0-8.824705882E+000.0000000000E+00+
*       3.8001176471E+01               0
GRID*               1768               0-8.823661765E+000.0000000000E+00+
*       3.7991227941E+01               0
GRID*               1769               0-8.822617647E+000.0000000000E+00+
*       3.7981279412E+01               0
GRID*               1770               0-8.821573529E+000.0000000000E+00+
*       3.7971330882E+01               0
GRID*               1771               0-8.820529412E+000.0000000000E+00+
*       3.7961382353E+01               0
GRID*               1772               0-8.819485294E+000.0000000000E+00+
*       3.7951433824E+01               0
GRID*               1773               0-8.818441176E+000.0000000000E+00+
*       3.7941485294E+01               0
GRID*               1774               0-8.817397059E+000.0000000000E+00+
*       3.7931536765E+01               0
GRID*               1775               0-8.816352941E+000.0000000000E+00+
*       3.7921588235E+01               0
GRID*               1776               0-8.815308824E+000.0000000000E+00+
*       3.7911639706E+01               0
GRID*               1777               0-8.814264706E+000.0000000000E+00+
*       3.7901691176E+01               0
GRID*               1778               0-8.813220588E+000.0000000000E+00+
*       3.7891742647E+01               0
GRID*               1779               0-8.812176471E+000.0000000000E+00+
*       3.7881794118E+01               0
GRID*               1780               0-8.811132353E+000.0000000000E+00+
*       3.7871845588E+01               0
GRID*               1781               0-8.810088235E+000.0000000000E+00+
*       3.7861897059E+01               0
GRID*               1782               0-8.809044118E+000.0000000000E+00+
*       3.7851948529E+01               0
GRID*               1783               0-8.808000000E+000.0000000000E+00+
*       3.7842000000E+01               0
GRID*               1784               0-8.806955882E+000.0000000000E+00+
*       3.7832051471E+01               0
GRID*               1785               0-8.805911765E+000.0000000000E+00+
*       3.7822102941E+01               0
GRID*               1786               0-8.804867647E+000.0000000000E+00+
*       3.7812154412E+01               0
GRID*               1787               0-8.803823529E+000.0000000000E+00+
*       3.7802205882E+01               0
GRID*               1788               0-8.802779412E+000.0000000000E+00+
*       3.7792257353E+01               0
GRID*               1789               0-8.801735294E+000.0000000000E+00+
*       3.7782308824E+01               0
GRID*               1790               0-8.800691176E+000.0000000000E+00+
*       3.7772360294E+01               0
GRID*               1791               0-8.799647059E+000.0000000000E+00+
*       3.7762411765E+01               0
GRID*               1792               0-8.798602941E+000.0000000000E+00+
*       3.7752463235E+01               0
GRID*               1793               0-8.797558824E+000.0000000000E+00+
*       3.7742514706E+01               0
GRID*               1794               0-8.796514706E+000.0000000000E+00+
*       3.7732566176E+01               0
GRID*               1795               0-8.795470588E+000.0000000000E+00+
*       3.7722617647E+01               0
GRID*               1796               0-8.794426471E+000.0000000000E+00+
*       3.7712669118E+01               0
GRID*               1797               0-8.793382353E+000.0000000000E+00+
*       3.7702720588E+01               0
GRID*               1798               0-8.792338235E+000.0000000000E+00+
*       3.7692772059E+01               0
GRID*               1799               0-8.791294118E+000.0000000000E+00+
*       3.7682823529E+01               0
GRID*               1800               0-8.790250000E+000.0000000000E+00+
*       3.7672875000E+01               0
GRID*               1801               0-8.789205882E+000.0000000000E+00+
*       3.7662926471E+01               0
GRID*               1802               0-8.788161765E+000.0000000000E+00+
*       3.7652977941E+01               0
GRID*               1803               0-8.787117647E+000.0000000000E+00+
*       3.7643029412E+01               0
GRID*               1804               0-8.786073529E+000.0000000000E+00+
*       3.7633080882E+01               0
GRID*               1805               0-8.785029412E+000.0000000000E+00+
*       3.7623132353E+01               0
GRID*               1806               0-8.783985294E+000.0000000000E+00+
*       3.7613183824E+01               0
GRID*               1807               0-8.782941176E+000.0000000000E+00+
*       3.7603235294E+01               0
GRID*               1808               0-8.781897059E+000.0000000000E+00+
*       3.7593286765E+01               0
GRID*               1809               0-8.780852941E+000.0000000000E+00+
*       3.7583338235E+01               0
GRID*               1810               0-8.779808824E+000.0000000000E+00+
*       3.7573389706E+01               0
GRID*               1811               0-8.778764706E+000.0000000000E+00+
*       3.7563441176E+01               0
GRID*               1812               0-8.777720588E+000.0000000000E+00+
*       3.7553492647E+01               0
GRID*               1813               0-8.776676471E+000.0000000000E+00+
*       3.7543544118E+01               0
GRID*               1814               0-8.775632353E+000.0000000000E+00+
*       3.7533595588E+01               0
GRID*               1815               0-8.774588235E+000.0000000000E+00+
*       3.7523647059E+01               0
GRID*               1816               0-8.773544118E+000.0000000000E+00+
*       3.7513698529E+01               0
GRID*               1817               0-8.772500000E+000.0000000000E+00+
*       3.7503750000E+01               0
GRID*               1818               0-8.771455882E+000.0000000000E+00+
*       3.7493801471E+01               0
GRID*               1819               0-8.770411765E+000.0000000000E+00+
*       3.7483852941E+01               0
GRID*               1820               0-8.769367647E+000.0000000000E+00+
*       3.7473904412E+01               0
GRID*               1821               0-8.768323529E+000.0000000000E+00+
*       3.7463955882E+01               0
GRID*               1822               0-8.767279412E+000.0000000000E+00+
*       3.7454007353E+01               0
GRID*               1823               0-8.766235294E+000.0000000000E+00+
*       3.7444058824E+01               0
GRID*               1824               0-8.765191176E+000.0000000000E+00+
*       3.7434110294E+01               0
GRID*               1825               0-8.764147059E+000.0000000000E+00+
*       3.7424161765E+01               0
GRID*               1826               0-8.763102941E+000.0000000000E+00+
*       3.7414213235E+01               0
GRID*               1827               0-8.762058824E+000.0000000000E+00+
*       3.7404264706E+01               0
GRID*               1828               0-8.761014706E+000.0000000000E+00+
*       3.7394316176E+01               0
GRID*               1829               0-8.759970588E+000.0000000000E+00+
*       3.7384367647E+01               0
GRID*               1830               0-8.758926471E+000.0000000000E+00+
*       3.7374419118E+01               0
GRID*               1831               0-8.757882353E+000.0000000000E+00+
*       3.7364470588E+01               0
GRID*               1832               0-8.756838235E+000.0000000000E+00+
*       3.7354522059E+01               0
GRID*               1833               0-8.755794118E+000.0000000000E+00+
*       3.7344573529E+01               0
GRID*               1834               0-8.754750000E+000.0000000000E+00+
*       3.7334625000E+01               0
GRID*               1835               0-8.753705882E+000.0000000000E+00+
*       3.7324676471E+01               0
GRID*               1836               0-8.752661765E+000.0000000000E+00+
*       3.7314727941E+01               0
GRID*               1837               0-8.751617647E+000.0000000000E+00+
*       3.7304779412E+01               0
GRID*               1838               0-8.750573529E+000.0000000000E+00+
*       3.7294830882E+01               0
GRID*               1839               0-8.749529412E+000.0000000000E+00+
*       3.7284882353E+01               0
GRID*               1840               0-8.748485294E+000.0000000000E+00+
*       3.7274933824E+01               0
GRID*               1841               0-8.747441176E+000.0000000000E+00+
*       3.7264985294E+01               0
GRID*               1842               0-8.746397059E+000.0000000000E+00+
*       3.7255036765E+01               0
GRID*               1843               0-8.745352941E+000.0000000000E+00+
*       3.7245088235E+01               0
GRID*               1844               0-8.744308824E+000.0000000000E+00+
*       3.7235139706E+01               0
GRID*               1845               0-8.743264706E+000.0000000000E+00+
*       3.7225191176E+01               0
GRID*               1846               0-8.742220588E+000.0000000000E+00+
*       3.7215242647E+01               0
GRID*               1847               0-8.741176471E+000.0000000000E+00+
*       3.7205294118E+01               0
GRID*               1848               0-8.740132353E+000.0000000000E+00+
*       3.7195345588E+01               0
GRID*               1849               0-8.739088235E+000.0000000000E+00+
*       3.7185397059E+01               0
GRID*               1850               0-8.738044118E+000.0000000000E+00+
*       3.7175448529E+01               0
GRID*               1851               0-8.737000000E+000.0000000000E+00+
*       3.7165500000E+01               0
GRID*               1852               0-8.735955882E+000.0000000000E+00+
*       3.7155551471E+01               0
GRID*               1853               0-8.734911765E+000.0000000000E+00+
*       3.7145602941E+01               0
GRID*               1854               0-8.733867647E+000.0000000000E+00+
*       3.7135654412E+01               0
GRID*               1855               0-8.732823529E+000.0000000000E+00+
*       3.7125705882E+01               0
GRID*               1856               0-8.731779412E+000.0000000000E+00+
*       3.7115757353E+01               0
GRID*               1857               0-8.730735294E+000.0000000000E+00+
*       3.7105808824E+01               0
GRID*               1858               0-8.729691176E+000.0000000000E+00+
*       3.7095860294E+01               0
GRID*               1859               0-8.728647059E+000.0000000000E+00+
*       3.7085911765E+01               0
GRID*               1860               0-8.727602941E+000.0000000000E+00+
*       3.7075963235E+01               0
GRID*               1861               0-8.726558824E+000.0000000000E+00+
*       3.7066014706E+01               0
GRID*               1862               0-8.725514706E+000.0000000000E+00+
*       3.7056066176E+01               0
GRID*               1863               0-8.724470588E+000.0000000000E+00+
*       3.7046117647E+01               0
GRID*               1864               0-8.723426471E+000.0000000000E+00+
*       3.7036169118E+01               0
GRID*               1865               0-8.722382353E+000.0000000000E+00+
*       3.7026220588E+01               0
GRID*               1866               0-8.721338235E+000.0000000000E+00+
*       3.7016272059E+01               0
GRID*               1867               0-8.720294118E+000.0000000000E+00+
*       3.7006323529E+01               0
GRID*               1868               0-8.719250000E+000.0000000000E+00+
*       3.6996375000E+01               0
GRID*               1869               0-8.718205882E+000.0000000000E+00+
*       3.6986426471E+01               0
GRID*               1870               0-8.717161765E+000.0000000000E+00+
*       3.6976477941E+01               0
GRID*               1871               0-8.716117647E+000.0000000000E+00+
*       3.6966529412E+01               0
GRID*               1872               0-8.715073529E+000.0000000000E+00+
*       3.6956580882E+01               0
GRID*               1873               0-8.714029412E+000.0000000000E+00+
*       3.6946632353E+01               0
GRID*               1874               0-8.712985294E+000.0000000000E+00+
*       3.6936683824E+01               0
GRID*               1875               0-8.711941176E+000.0000000000E+00+
*       3.6926735294E+01               0
GRID*               1876               0-8.710897059E+000.0000000000E+00+
*       3.6916786765E+01               0
GRID*               1877               0-8.709852941E+000.0000000000E+00+
*       3.6906838235E+01               0
GRID*               1878               0-8.708808824E+000.0000000000E+00+
*       3.6896889706E+01               0
GRID*               1879               0-8.707764706E+000.0000000000E+00+
*       3.6886941176E+01               0
GRID*               1880               0-8.706720588E+000.0000000000E+00+
*       3.6876992647E+01               0
GRID*               1881               0-8.705676471E+000.0000000000E+00+
*       3.6867044118E+01               0
GRID*               1882               0-8.704632353E+000.0000000000E+00+
*       3.6857095588E+01               0
GRID*               1883               0-8.703588235E+000.0000000000E+00+
*       3.6847147059E+01               0
GRID*               1884               0-8.702544118E+000.0000000000E+00+
*       3.6837198529E+01               0
GRID*               1885               0-8.701500000E+000.0000000000E+00+
*       3.6827250000E+01               0
GRID*               1886               0-8.700455882E+000.0000000000E+00+
*       3.6817301471E+01               0
GRID*               1887               0-8.699411765E+000.0000000000E+00+
*       3.6807352941E+01               0
GRID*               1888               0-8.698367647E+000.0000000000E+00+
*       3.6797404412E+01               0
GRID*               1889               0-8.697323529E+000.0000000000E+00+
*       3.6787455882E+01               0
GRID*               1890               0-8.696279412E+000.0000000000E+00+
*       3.6777507353E+01               0
GRID*               1891               0-8.695235294E+000.0000000000E+00+
*       3.6767558824E+01               0
GRID*               1892               0-8.694191176E+000.0000000000E+00+
*       3.6757610294E+01               0
GRID*               1893               0-8.693147059E+000.0000000000E+00+
*       3.6747661765E+01               0
GRID*               1894               0-8.692102941E+000.0000000000E+00+
*       3.6737713235E+01               0
GRID*               1895               0-8.691058824E+000.0000000000E+00+
*       3.6727764706E+01               0
GRID*               1896               0-8.690014706E+000.0000000000E+00+
*       3.6717816176E+01               0
GRID*               1897               0-8.688970588E+000.0000000000E+00+
*       3.6707867647E+01               0
GRID*               1898               0-8.687926471E+000.0000000000E+00+
*       3.6697919118E+01               0
GRID*               1899               0-8.686882353E+000.0000000000E+00+
*       3.6687970588E+01               0
GRID*               1900               0-8.685838235E+000.0000000000E+00+
*       3.6678022059E+01               0
GRID*               1901               0-8.684794118E+000.0000000000E+00+
*       3.6668073529E+01               0
GRID*               1902               0-8.683750000E+000.0000000000E+00+
*       3.6658125000E+01               0
GRID*               1903               0-8.682705882E+000.0000000000E+00+
*       3.6648176471E+01               0
GRID*               1904               0-8.681661765E+000.0000000000E+00+
*       3.6638227941E+01               0
GRID*               1905               0-8.680617647E+000.0000000000E+00+
*       3.6628279412E+01               0
GRID*               1906               0-8.679573529E+000.0000000000E+00+
*       3.6618330882E+01               0
GRID*               1907               0-8.678529412E+000.0000000000E+00+
*       3.6608382353E+01               0
GRID*               1908               0-8.677485294E+000.0000000000E+00+
*       3.6598433824E+01               0
GRID*               1909               0-8.676441176E+000.0000000000E+00+
*       3.6588485294E+01               0
GRID*               1910               0-8.675397059E+000.0000000000E+00+
*       3.6578536765E+01               0
GRID*               1911               0-8.674352941E+000.0000000000E+00+
*       3.6568588235E+01               0
GRID*               1912               0-8.673308824E+000.0000000000E+00+
*       3.6558639706E+01               0
GRID*               1913               0-8.672264706E+000.0000000000E+00+
*       3.6548691176E+01               0
GRID*               1914               0-8.671220588E+000.0000000000E+00+
*       3.6538742647E+01               0
GRID*               1915               0-8.670176471E+000.0000000000E+00+
*       3.6528794118E+01               0
GRID*               1916               0-8.669132353E+000.0000000000E+00+
*       3.6518845588E+01               0
GRID*               1917               0-8.668088235E+000.0000000000E+00+
*       3.6508897059E+01               0
GRID*               1918               0-8.667044118E+000.0000000000E+00+
*       3.6498948529E+01               0
GRID*               1919               0-8.666000000E+000.0000000000E+00+
*       3.6489000000E+01               0
GRID*               1920               0-8.664955882E+000.0000000000E+00+
*       3.6479051471E+01               0
GRID*               1921               0-8.663911765E+000.0000000000E+00+
*       3.6469102941E+01               0
GRID*               1922               0-8.662867647E+000.0000000000E+00+
*       3.6459154412E+01               0
GRID*               1923               0-8.661823529E+000.0000000000E+00+
*       3.6449205882E+01               0
GRID*               1924               0-8.660779412E+000.0000000000E+00+
*       3.6439257353E+01               0
GRID*               1925               0-8.659735294E+000.0000000000E+00+
*       3.6429308824E+01               0
GRID*               1926               0-8.658691176E+000.0000000000E+00+
*       3.6419360294E+01               0
GRID*               1927               0-8.657647059E+000.0000000000E+00+
*       3.6409411765E+01               0
GRID*               1928               0-8.656602941E+000.0000000000E+00+
*       3.6399463235E+01               0
GRID*               1929               0-8.655558824E+000.0000000000E+00+
*       3.6389514706E+01               0
GRID*               1930               0-8.654514706E+000.0000000000E+00+
*       3.6379566176E+01               0
GRID*               1931               0-8.653470588E+000.0000000000E+00+
*       3.6369617647E+01               0
GRID*               1932               0-8.652426471E+000.0000000000E+00+
*       3.6359669118E+01               0
GRID*               1933               0-8.651382353E+000.0000000000E+00+
*       3.6349720588E+01               0
GRID*               1934               0-8.650338235E+000.0000000000E+00+
*       3.6339772059E+01               0
GRID*               1935               0-8.649294118E+000.0000000000E+00+
*       3.6329823529E+01               0
GRID*               1936               0-8.648250000E+000.0000000000E+00+
*       3.6319875000E+01               0
GRID*               1937               0-8.647205882E+000.0000000000E+00+
*       3.6309926471E+01               0
GRID*               1938               0-8.646161765E+000.0000000000E+00+
*       3.6299977941E+01               0
GRID*               1939               0-8.645117647E+000.0000000000E+00+
*       3.6290029412E+01               0
GRID*               1940               0-8.644073529E+000.0000000000E+00+
*       3.6280080882E+01               0
GRID*               1941               0-8.643029412E+000.0000000000E+00+
*       3.6270132353E+01               0
GRID*               1942               0-8.641985294E+000.0000000000E+00+
*       3.6260183824E+01               0
GRID*               1943               0-8.640941176E+000.0000000000E+00+
*       3.6250235294E+01               0
GRID*               1944               0-8.639897059E+000.0000000000E+00+
*       3.6240286765E+01               0
GRID*               1945               0-8.638852941E+000.0000000000E+00+
*       3.6230338235E+01               0
GRID*               1946               0-8.637808824E+000.0000000000E+00+
*       3.6220389706E+01               0
GRID*               1947               0-8.636764706E+000.0000000000E+00+
*       3.6210441176E+01               0
GRID*               1948               0-8.635720588E+000.0000000000E+00+
*       3.6200492647E+01               0
GRID*               1949               0-8.634676471E+000.0000000000E+00+
*       3.6190544118E+01               0
GRID*               1950               0-8.633632353E+000.0000000000E+00+
*       3.6180595588E+01               0
GRID*               1951               0-8.632588235E+000.0000000000E+00+
*       3.6170647059E+01               0
GRID*               1952               0-8.631544118E+000.0000000000E+00+
*       3.6160698529E+01               0
GRID*               1953               0-8.630500000E+000.0000000000E+00+
*       3.6150750000E+01               0
GRID*               1954               0-8.629455882E+000.0000000000E+00+
*       3.6140801471E+01               0
GRID*               1955               0-8.628411765E+000.0000000000E+00+
*       3.6130852941E+01               0
GRID*               1956               0-8.627367647E+000.0000000000E+00+
*       3.6120904412E+01               0
GRID*               1957               0-8.626323529E+000.0000000000E+00+
*       3.6110955882E+01               0
GRID*               1958               0-8.625279412E+000.0000000000E+00+
*       3.6101007353E+01               0
GRID*               1959               0-8.624235294E+000.0000000000E+00+
*       3.6091058824E+01               0
GRID*               1960               0-8.623191176E+000.0000000000E+00+
*       3.6081110294E+01               0
GRID*               1961               0-8.622147059E+000.0000000000E+00+
*       3.6071161765E+01               0
GRID*               1962               0-8.621102941E+000.0000000000E+00+
*       3.6061213235E+01               0
GRID*               1963               0-8.620058824E+000.0000000000E+00+
*       3.6051264706E+01               0
GRID*               1964               0-8.619014706E+000.0000000000E+00+
*       3.6041316176E+01               0
GRID*               1965               0-8.617970588E+000.0000000000E+00+
*       3.6031367647E+01               0
GRID*               1966               0-8.616926471E+000.0000000000E+00+
*       3.6021419118E+01               0
GRID*               1967               0-8.615882353E+000.0000000000E+00+
*       3.6011470588E+01               0
GRID*               1968               0-8.614838235E+000.0000000000E+00+
*       3.6001522059E+01               0
GRID*               1969               0-8.613794118E+000.0000000000E+00+
*       3.5991573529E+01               0
GRID*               1970               0-8.612750000E+000.0000000000E+00+
*       3.5981625000E+01               0
GRID*               1971               0-8.611705882E+000.0000000000E+00+
*       3.5971676471E+01               0
GRID*               1972               0-8.610661765E+000.0000000000E+00+
*       3.5961727941E+01               0
GRID*               1973               0-8.609617647E+000.0000000000E+00+
*       3.5951779412E+01               0
GRID*               1974               0-8.608573529E+000.0000000000E+00+
*       3.5941830882E+01               0
GRID*               1975               0-8.607529412E+000.0000000000E+00+
*       3.5931882353E+01               0
GRID*               1976               0-8.606485294E+000.0000000000E+00+
*       3.5921933824E+01               0
GRID*               1977               0-8.605441176E+000.0000000000E+00+
*       3.5911985294E+01               0
GRID*               1978               0-8.604397059E+000.0000000000E+00+
*       3.5902036765E+01               0
GRID*               1979               0-8.603352941E+000.0000000000E+00+
*       3.5892088235E+01               0
GRID*               1980               0-8.602308824E+000.0000000000E+00+
*       3.5882139706E+01               0
GRID*               1981               0-8.601264706E+000.0000000000E+00+
*       3.5872191176E+01               0
GRID*               1982               0-8.600220588E+000.0000000000E+00+
*       3.5862242647E+01               0
GRID*               1983               0-8.599176471E+000.0000000000E+00+
*       3.5852294118E+01               0
GRID*               1984               0-8.598132353E+000.0000000000E+00+
*       3.5842345588E+01               0
GRID*               1985               0-8.597088235E+000.0000000000E+00+
*       3.5832397059E+01               0
GRID*               1986               0-8.596044118E+000.0000000000E+00+
*       3.5822448529E+01               0
GRID*               1987               0-8.595000000E+000.0000000000E+00+
*       3.5812500000E+01               0
GRID*               1988               0-8.593955882E+000.0000000000E+00+
*       3.5802551471E+01               0
GRID*               1989               0-8.592911765E+000.0000000000E+00+
*       3.5792602941E+01               0
GRID*               1990               0-8.591867647E+000.0000000000E+00+
*       3.5782654412E+01               0
GRID*               1991               0-8.590823529E+000.0000000000E+00+
*       3.5772705882E+01               0
GRID*               1992               0-8.589779412E+000.0000000000E+00+
*       3.5762757353E+01               0
GRID*               1993               0-8.588735294E+000.0000000000E+00+
*       3.5752808824E+01               0
GRID*               1994               0-8.587691176E+000.0000000000E+00+
*       3.5742860294E+01               0
GRID*               1995               0-8.586647059E+000.0000000000E+00+
*       3.5732911765E+01               0
GRID*               1996               0-8.585602941E+000.0000000000E+00+
*       3.5722963235E+01               0
GRID*               1997               0-8.584558824E+000.0000000000E+00+
*       3.5713014706E+01               0
GRID*               1998               0-8.583514706E+000.0000000000E+00+
*       3.5703066176E+01               0
GRID*               1999               0-8.582470588E+000.0000000000E+00+
*       3.5693117647E+01               0
GRID*               2000               0-8.581426471E+000.0000000000E+00+
*       3.5683169118E+01               0
GRID*               2001               0-8.580382353E+000.0000000000E+00+
*       3.5673220588E+01               0
GRID*               2002               0-8.579338235E+000.0000000000E+00+
*       3.5663272059E+01               0
GRID*               2003               0-8.578294118E+000.0000000000E+00+
*       3.5653323529E+01               0
GRID*               2004               0-8.577250000E+000.0000000000E+00+
*       3.5643375000E+01               0
GRID*               2005               0-8.576205882E+000.0000000000E+00+
*       3.5633426471E+01               0
GRID*               2006               0-8.575161765E+000.0000000000E+00+
*       3.5623477941E+01               0
GRID*               2007               0-8.574117647E+000.0000000000E+00+
*       3.5613529412E+01               0
GRID*               2008               0-8.573073529E+000.0000000000E+00+
*       3.5603580882E+01               0
GRID*               2009               0-8.572029412E+000.0000000000E+00+
*       3.5593632353E+01               0
GRID*               2010               0-8.570985294E+000.0000000000E+00+
*       3.5583683824E+01               0
GRID*               2011               0-8.569941176E+000.0000000000E+00+
*       3.5573735294E+01               0
GRID*               2012               0-8.568897059E+000.0000000000E+00+
*       3.5563786765E+01               0
GRID*               2013               0-8.567852941E+000.0000000000E+00+
*       3.5553838235E+01               0
GRID*               2014               0-8.566808824E+000.0000000000E+00+
*       3.5543889706E+01               0
GRID*               2015               0-8.565764706E+000.0000000000E+00+
*       3.5533941176E+01               0
GRID*               2016               0-8.564720588E+000.0000000000E+00+
*       3.5523992647E+01               0
GRID*               2017               0-8.563676471E+000.0000000000E+00+
*       3.5514044118E+01               0
GRID*               2018               0-8.562632353E+000.0000000000E+00+
*       3.5504095588E+01               0
GRID*               2019               0-8.561588235E+000.0000000000E+00+
*       3.5494147059E+01               0
GRID*               2020               0-8.560544118E+000.0000000000E+00+
*       3.5484198529E+01               0
GRID*               2021               0-8.559500000E+000.0000000000E+00+
*       3.5474250000E+01               0
GRID*               2022               0-8.558455882E+000.0000000000E+00+
*       3.5464301471E+01               0
GRID*               2023               0-8.557411765E+000.0000000000E+00+
*       3.5454352941E+01               0
GRID*               2024               0-8.556367647E+000.0000000000E+00+
*       3.5444404412E+01               0
GRID*               2025               0-8.555323529E+000.0000000000E+00+
*       3.5434455882E+01               0
GRID*               2026               0-8.554279412E+000.0000000000E+00+
*       3.5424507353E+01               0
GRID*               2027               0-8.553235294E+000.0000000000E+00+
*       3.5414558824E+01               0
GRID*               2028               0-8.552191176E+000.0000000000E+00+
*       3.5404610294E+01               0
GRID*               2029               0-8.551147059E+000.0000000000E+00+
*       3.5394661765E+01               0
GRID*               2030               0-8.550102941E+000.0000000000E+00+
*       3.5384713235E+01               0
GRID*               2031               0-8.549058824E+000.0000000000E+00+
*       3.5374764706E+01               0
GRID*               2032               0-8.548014706E+000.0000000000E+00+
*       3.5364816176E+01               0
GRID*               2033               0-8.546970588E+000.0000000000E+00+
*       3.5354867647E+01               0
GRID*               2034               0-8.545926471E+000.0000000000E+00+
*       3.5344919118E+01               0
GRID*               2035               0-8.544882353E+000.0000000000E+00+
*       3.5334970588E+01               0
GRID*               2036               0-8.543838235E+000.0000000000E+00+
*       3.5325022059E+01               0
GRID*               2037               0-8.542794118E+000.0000000000E+00+
*       3.5315073529E+01               0
GRID*               2038               0-8.541750000E+000.0000000000E+00+
*       3.5305125000E+01               0
GRID*               2039               0-8.540705882E+000.0000000000E+00+
*       3.5295176471E+01               0
GRID*               2040               0-8.539661765E+000.0000000000E+00+
*       3.5285227941E+01               0
GRID*               2041               0-8.538617647E+000.0000000000E+00+
*       3.5275279412E+01               0
GRID*               2042               0-8.537573529E+000.0000000000E+00+
*       3.5265330882E+01               0
GRID*               2043               0-8.536529412E+000.0000000000E+00+
*       3.5255382353E+01               0
GRID*               2044               0-8.535485294E+000.0000000000E+00+
*       3.5245433824E+01               0
GRID*               2045               0-8.534441176E+000.0000000000E+00+
*       3.5235485294E+01               0
GRID*               2046               0-8.533397059E+000.0000000000E+00+
*       3.5225536765E+01               0
GRID*               2047               0-8.532352941E+000.0000000000E+00+
*       3.5215588235E+01               0
GRID*               2048               0-8.531308824E+000.0000000000E+00+
*       3.5205639706E+01               0
GRID*               2049               0-8.530264706E+000.0000000000E+00+
*       3.5195691176E+01               0
GRID*               2050               0-8.529220588E+000.0000000000E+00+
*       3.5185742647E+01               0
GRID*               2051               0-8.528176471E+000.0000000000E+00+
*       3.5175794118E+01               0
GRID*               2052               0-8.527132353E+000.0000000000E+00+
*       3.5165845588E+01               0
GRID*               2053               0-8.526088235E+000.0000000000E+00+
*       3.5155897059E+01               0
GRID*               2054               0-8.525044118E+000.0000000000E+00+
*       3.5145948529E+01               0
GRID*               2055               0-8.524000000E+000.0000000000E+00+
*       3.5136000000E+01               0
GRID*               2056               0-8.522955882E+000.0000000000E+00+
*       3.5126051471E+01               0
GRID*               2057               0-8.521911765E+000.0000000000E+00+
*       3.5116102941E+01               0
GRID*               2058               0-8.520867647E+000.0000000000E+00+
*       3.5106154412E+01               0
GRID*               2059               0-8.519823529E+000.0000000000E+00+
*       3.5096205882E+01               0
GRID*               2060               0-8.518779412E+000.0000000000E+00+
*       3.5086257353E+01               0
GRID*               2061               0-8.517735294E+000.0000000000E+00+
*       3.5076308824E+01               0
GRID*               2062               0-8.516691176E+000.0000000000E+00+
*       3.5066360294E+01               0
GRID*               2063               0-8.515647059E+000.0000000000E+00+
*       3.5056411765E+01               0
GRID*               2064               0-8.514602941E+000.0000000000E+00+
*       3.5046463235E+01               0
GRID*               2065               0-8.513558824E+000.0000000000E+00+
*       3.5036514706E+01               0
GRID*               2066               0-8.512514706E+000.0000000000E+00+
*       3.5026566176E+01               0
GRID*               2067               0-8.511470588E+000.0000000000E+00+
*       3.5016617647E+01               0
GRID*               2068               0-8.510426471E+000.0000000000E+00+
*       3.5006669118E+01               0
GRID*               2069               0-8.509382353E+000.0000000000E+00+
*       3.4996720588E+01               0
GRID*               2070               0-8.508338235E+000.0000000000E+00+
*       3.4986772059E+01               0
GRID*               2071               0-8.507294118E+000.0000000000E+00+
*       3.4976823529E+01               0
GRID*               2072               0-8.506250000E+000.0000000000E+00+
*       3.4966875000E+01               0
GRID*               2073               0-8.505205882E+000.0000000000E+00+
*       3.4956926471E+01               0
GRID*               2074               0-8.504161765E+000.0000000000E+00+
*       3.4946977941E+01               0
GRID*               2075               0-8.503117647E+000.0000000000E+00+
*       3.4937029412E+01               0
GRID*               2076               0-8.502073529E+000.0000000000E+00+
*       3.4927080882E+01               0
GRID*               2077               0-8.501029412E+000.0000000000E+00+
*       3.4917132353E+01               0
GRID*               2078               0-8.499985294E+000.0000000000E+00+
*       3.4907183824E+01               0
GRID*               2079               0-8.498941176E+000.0000000000E+00+
*       3.4897235294E+01               0
GRID*               2080               0-8.497897059E+000.0000000000E+00+
*       3.4887286765E+01               0
GRID*               2081               0-8.496852941E+000.0000000000E+00+
*       3.4877338235E+01               0
GRID*               2082               0-8.495808824E+000.0000000000E+00+
*       3.4867389706E+01               0
GRID*               2083               0-8.494764706E+000.0000000000E+00+
*       3.4857441176E+01               0
GRID*               2084               0-8.493720588E+000.0000000000E+00+
*       3.4847492647E+01               0
GRID*               2085               0-8.492676471E+000.0000000000E+00+
*       3.4837544118E+01               0
GRID*               2086               0-8.491632353E+000.0000000000E+00+
*       3.4827595588E+01               0
GRID*               2087               0-8.490588235E+000.0000000000E+00+
*       3.4817647059E+01               0
GRID*               2088               0-8.489544118E+000.0000000000E+00+
*       3.4807698529E+01               0
GRID*               2089               0-8.488500000E+000.0000000000E+00+
*       3.4797750000E+01               0
GRID*               2090               0-8.487455882E+000.0000000000E+00+
*       3.4787801471E+01               0
GRID*               2091               0-8.486411765E+000.0000000000E+00+
*       3.4777852941E+01               0
GRID*               2092               0-8.485367647E+000.0000000000E+00+
*       3.4767904412E+01               0
GRID*               2093               0-8.484323529E+000.0000000000E+00+
*       3.4757955882E+01               0
GRID*               2094               0-8.483279412E+000.0000000000E+00+
*       3.4748007353E+01               0
GRID*               2095               0-8.482235294E+000.0000000000E+00+
*       3.4738058824E+01               0
GRID*               2096               0-8.481191176E+000.0000000000E+00+
*       3.4728110294E+01               0
GRID*               2097               0-8.480147059E+000.0000000000E+00+
*       3.4718161765E+01               0
GRID*               2098               0-8.479102941E+000.0000000000E+00+
*       3.4708213235E+01               0
GRID*               2099               0-8.478058824E+000.0000000000E+00+
*       3.4698264706E+01               0
GRID*               2100               0-8.477014706E+000.0000000000E+00+
*       3.4688316176E+01               0
GRID*               2101               0-8.475970588E+000.0000000000E+00+
*       3.4678367647E+01               0
GRID*               2102               0-8.474926471E+000.0000000000E+00+
*       3.4668419118E+01               0
GRID*               2103               0-8.473882353E+000.0000000000E+00+
*       3.4658470588E+01               0
GRID*               2104               0-8.472838235E+000.0000000000E+00+
*       3.4648522059E+01               0
GRID*               2105               0-8.471794118E+000.0000000000E+00+
*       3.4638573529E+01               0
GRID*               2106               0-8.470750000E+000.0000000000E+00+
*       3.4628625000E+01               0
GRID*               2107               0-8.469705882E+000.0000000000E+00+
*       3.4618676471E+01               0
GRID*               2108               0-8.468661765E+000.0000000000E+00+
*       3.4608727941E+01               0
GRID*               2109               0-8.467617647E+000.0000000000E+00+
*       3.4598779412E+01               0
GRID*               2110               0-8.466573529E+000.0000000000E+00+
*       3.4588830882E+01               0
GRID*               2111               0-8.465529412E+000.0000000000E+00+
*       3.4578882353E+01               0
GRID*               2112               0-8.464485294E+000.0000000000E+00+
*       3.4568933824E+01               0
GRID*               2113               0-8.463441176E+000.0000000000E+00+
*       3.4558985294E+01               0
GRID*               2114               0-8.462397059E+000.0000000000E+00+
*       3.4549036765E+01               0
GRID*               2115               0-8.461352941E+000.0000000000E+00+
*       3.4539088235E+01               0
GRID*               2116               0-8.460308824E+000.0000000000E+00+
*       3.4529139706E+01               0
GRID*               2117               0-8.459264706E+000.0000000000E+00+
*       3.4519191176E+01               0
GRID*               2118               0-8.458220588E+000.0000000000E+00+
*       3.4509242647E+01               0
GRID*               2119               0-8.457176471E+000.0000000000E+00+
*       3.4499294118E+01               0
GRID*               2120               0-8.456132353E+000.0000000000E+00+
*       3.4489345588E+01               0
GRID*               2121               0-8.455088235E+000.0000000000E+00+
*       3.4479397059E+01               0
GRID*               2122               0-8.454044118E+000.0000000000E+00+
*       3.4469448529E+01               0
GRID*               2123               0-8.453000000E+000.0000000000E+00+
*       3.4459500000E+01               0
GRID*               2124               0-8.451955882E+000.0000000000E+00+
*       3.4449551471E+01               0
GRID*               2125               0-8.450911765E+000.0000000000E+00+
*       3.4439602941E+01               0
GRID*               2126               0-8.449867647E+000.0000000000E+00+
*       3.4429654412E+01               0
GRID*               2127               0-8.448823529E+000.0000000000E+00+
*       3.4419705882E+01               0
GRID*               2128               0-8.447779412E+000.0000000000E+00+
*       3.4409757353E+01               0
GRID*               2129               0-8.446735294E+000.0000000000E+00+
*       3.4399808824E+01               0
GRID*               2130               0-8.445691176E+000.0000000000E+00+
*       3.4389860294E+01               0
GRID*               2131               0-8.444647059E+000.0000000000E+00+
*       3.4379911765E+01               0
GRID*               2132               0-8.443602941E+000.0000000000E+00+
*       3.4369963235E+01               0
GRID*               2133               0-8.442558824E+000.0000000000E+00+
*       3.4360014706E+01               0
GRID*               2134               0-8.441514706E+000.0000000000E+00+
*       3.4350066176E+01               0
GRID*               2135               0-8.440470588E+000.0000000000E+00+
*       3.4340117647E+01               0
GRID*               2136               0-8.439426471E+000.0000000000E+00+
*       3.4330169118E+01               0
GRID*               2137               0-8.438382353E+000.0000000000E+00+
*       3.4320220588E+01               0
GRID*               2138               0-8.437338235E+000.0000000000E+00+
*       3.4310272059E+01               0
GRID*               2139               0-8.436294118E+000.0000000000E+00+
*       3.4300323529E+01               0
GRID*               2140               0-8.435250000E+000.0000000000E+00+
*       3.4290375000E+01               0
GRID*               2141               0-8.434205882E+000.0000000000E+00+
*       3.4280426471E+01               0
GRID*               2142               0-8.433161765E+000.0000000000E+00+
*       3.4270477941E+01               0
GRID*               2143               0-8.432117647E+000.0000000000E+00+
*       3.4260529412E+01               0
GRID*               2144               0-8.431073529E+000.0000000000E+00+
*       3.4250580882E+01               0
GRID*               2145               0-8.430029412E+000.0000000000E+00+
*       3.4240632353E+01               0
GRID*               2146               0-8.428985294E+000.0000000000E+00+
*       3.4230683824E+01               0
GRID*               2147               0-8.427941176E+000.0000000000E+00+
*       3.4220735294E+01               0
GRID*               2148               0-8.426897059E+000.0000000000E+00+
*       3.4210786765E+01               0
GRID*               2149               0-8.425852941E+000.0000000000E+00+
*       3.4200838235E+01               0
GRID*               2150               0-8.424808824E+000.0000000000E+00+
*       3.4190889706E+01               0
GRID*               2151               0-8.423764706E+000.0000000000E+00+
*       3.4180941176E+01               0
GRID*               2152               0-8.422720588E+000.0000000000E+00+
*       3.4170992647E+01               0
GRID*               2153               0-8.421676471E+000.0000000000E+00+
*       3.4161044118E+01               0
GRID*               2154               0-8.420632353E+000.0000000000E+00+
*       3.4151095588E+01               0
GRID*               2155               0-8.419588235E+000.0000000000E+00+
*       3.4141147059E+01               0
GRID*               2156               0-8.418544118E+000.0000000000E+00+
*       3.4131198529E+01               0
GRID*               2157               0-8.417500000E+000.0000000000E+00+
*       3.4121250000E+01               0
GRID*               2158               0-8.416455882E+000.0000000000E+00+
*       3.4111301471E+01               0
GRID*               2159               0-8.415411765E+000.0000000000E+00+
*       3.4101352941E+01               0
GRID*               2160               0-8.414367647E+000.0000000000E+00+
*       3.4091404412E+01               0
GRID*               2161               0-8.413323529E+000.0000000000E+00+
*       3.4081455882E+01               0
GRID*               2162               0-8.412279412E+000.0000000000E+00+
*       3.4071507353E+01               0
GRID*               2163               0-8.411235294E+000.0000000000E+00+
*       3.4061558824E+01               0
GRID*               2164               0-8.410191176E+000.0000000000E+00+
*       3.4051610294E+01               0
GRID*               2165               0-8.409147059E+000.0000000000E+00+
*       3.4041661765E+01               0
GRID*               2166               0-8.408102941E+000.0000000000E+00+
*       3.4031713235E+01               0
GRID*               2167               0-8.407058824E+000.0000000000E+00+
*       3.4021764706E+01               0
GRID*               2168               0-8.406014706E+000.0000000000E+00+
*       3.4011816176E+01               0
GRID*               2169               0-8.404970588E+000.0000000000E+00+
*       3.4001867647E+01               0
GRID*               2170               0-8.403926471E+000.0000000000E+00+
*       3.3991919118E+01               0
GRID*               2171               0-8.402882353E+000.0000000000E+00+
*       3.3981970588E+01               0
GRID*               2172               0-8.401838235E+000.0000000000E+00+
*       3.3972022059E+01               0
GRID*               2173               0-8.400794118E+000.0000000000E+00+
*       3.3962073529E+01               0
GRID*               2174               0-8.399750000E+000.0000000000E+00+
*       3.3952125000E+01               0
GRID*               2175               0-8.398705882E+000.0000000000E+00+
*       3.3942176471E+01               0
GRID*               2176               0-8.397661765E+000.0000000000E+00+
*       3.3932227941E+01               0
GRID*               2177               0-8.396617647E+000.0000000000E+00+
*       3.3922279412E+01               0
GRID*               2178               0-8.395573529E+000.0000000000E+00+
*       3.3912330882E+01               0
GRID*               2179               0-8.394529412E+000.0000000000E+00+
*       3.3902382353E+01               0
GRID*               2180               0-8.393485294E+000.0000000000E+00+
*       3.3892433824E+01               0
GRID*               2181               0-8.392441176E+000.0000000000E+00+
*       3.3882485294E+01               0
GRID*               2182               0-8.391397059E+000.0000000000E+00+
*       3.3872536765E+01               0
GRID*               2183               0-8.390352941E+000.0000000000E+00+
*       3.3862588235E+01               0
GRID*               2184               0-8.389308824E+000.0000000000E+00+
*       3.3852639706E+01               0
GRID*               2185               0-8.388264706E+000.0000000000E+00+
*       3.3842691176E+01               0
GRID*               2186               0-8.387220588E+000.0000000000E+00+
*       3.3832742647E+01               0
GRID*               2187               0-8.386176471E+000.0000000000E+00+
*       3.3822794118E+01               0
GRID*               2188               0-8.385132353E+000.0000000000E+00+
*       3.3812845588E+01               0
GRID*               2189               0-8.384088235E+000.0000000000E+00+
*       3.3802897059E+01               0
GRID*               2190               0-8.383044118E+000.0000000000E+00+
*       3.3792948529E+01               0
GRID*               2191               0-8.382000000E+000.0000000000E+00+
*       3.3783000000E+01               0
GRID*               2192               0-8.380955882E+000.0000000000E+00+
*       3.3773051471E+01               0
GRID*               2193               0-8.379911765E+000.0000000000E+00+
*       3.3763102941E+01               0
GRID*               2194               0-8.378867647E+000.0000000000E+00+
*       3.3753154412E+01               0
GRID*               2195               0-8.377823529E+000.0000000000E+00+
*       3.3743205882E+01               0
GRID*               2196               0-8.376779412E+000.0000000000E+00+
*       3.3733257353E+01               0
GRID*               2197               0-8.375735294E+000.0000000000E+00+
*       3.3723308824E+01               0
GRID*               2198               0-8.374691176E+000.0000000000E+00+
*       3.3713360294E+01               0
GRID*               2199               0-8.373647059E+000.0000000000E+00+
*       3.3703411765E+01               0
GRID*               2200               0-8.372602941E+000.0000000000E+00+
*       3.3693463235E+01               0
GRID*               2201               0-8.371558824E+000.0000000000E+00+
*       3.3683514706E+01               0
GRID*               2202               0-8.370514706E+000.0000000000E+00+
*       3.3673566176E+01               0
GRID*               2203               0-8.369470588E+000.0000000000E+00+
*       3.3663617647E+01               0
GRID*               2204               0-8.368426471E+000.0000000000E+00+
*       3.3653669118E+01               0
GRID*               2205               0-8.367382353E+000.0000000000E+00+
*       3.3643720588E+01               0
GRID*               2206               0-8.366338235E+000.0000000000E+00+
*       3.3633772059E+01               0
GRID*               2207               0-8.365294118E+000.0000000000E+00+
*       3.3623823529E+01               0
GRID*               2208               0-8.364250000E+000.0000000000E+00+
*       3.3613875000E+01               0
GRID*               2209               0-8.363205882E+000.0000000000E+00+
*       3.3603926471E+01               0
GRID*               2210               0-8.362161765E+000.0000000000E+00+
*       3.3593977941E+01               0
GRID*               2211               0-8.361117647E+000.0000000000E+00+
*       3.3584029412E+01               0
GRID*               2212               0-8.360073529E+000.0000000000E+00+
*       3.3574080882E+01               0
GRID*               2213               0-8.359029412E+000.0000000000E+00+
*       3.3564132353E+01               0
GRID*               2214               0-8.357985294E+000.0000000000E+00+
*       3.3554183824E+01               0
GRID*               2215               0-8.356941176E+000.0000000000E+00+
*       3.3544235294E+01               0
GRID*               2216               0-8.355897059E+000.0000000000E+00+
*       3.3534286765E+01               0
GRID*               2217               0-8.354852941E+000.0000000000E+00+
*       3.3524338235E+01               0
GRID*               2218               0-8.353808824E+000.0000000000E+00+
*       3.3514389706E+01               0
GRID*               2219               0-8.352764706E+000.0000000000E+00+
*       3.3504441176E+01               0
GRID*               2220               0-8.351720588E+000.0000000000E+00+
*       3.3494492647E+01               0
GRID*               2221               0-8.350676471E+000.0000000000E+00+
*       3.3484544118E+01               0
GRID*               2222               0-8.349632353E+000.0000000000E+00+
*       3.3474595588E+01               0
GRID*               2223               0-8.348588235E+000.0000000000E+00+
*       3.3464647059E+01               0
GRID*               2224               0-8.347544118E+000.0000000000E+00+
*       3.3454698529E+01               0
GRID*               2225               0-8.346500000E+000.0000000000E+00+
*       3.3444750000E+01               0
GRID*               2226               0-8.345455882E+000.0000000000E+00+
*       3.3434801471E+01               0
GRID*               2227               0-8.344411765E+000.0000000000E+00+
*       3.3424852941E+01               0
GRID*               2228               0-8.343367647E+000.0000000000E+00+
*       3.3414904412E+01               0
GRID*               2229               0-8.342323529E+000.0000000000E+00+
*       3.3404955882E+01               0
GRID*               2230               0-8.341279412E+000.0000000000E+00+
*       3.3395007353E+01               0
GRID*               2231               0-8.340235294E+000.0000000000E+00+
*       3.3385058824E+01               0
GRID*               2232               0-8.339191176E+000.0000000000E+00+
*       3.3375110294E+01               0
GRID*               2233               0-8.338147059E+000.0000000000E+00+
*       3.3365161765E+01               0
GRID*               2234               0-8.337102941E+000.0000000000E+00+
*       3.3355213235E+01               0
GRID*               2235               0-8.336058824E+000.0000000000E+00+
*       3.3345264706E+01               0
GRID*               2236               0-8.335014706E+000.0000000000E+00+
*       3.3335316176E+01               0
GRID*               2237               0-8.333970588E+000.0000000000E+00+
*       3.3325367647E+01               0
GRID*               2238               0-8.332926471E+000.0000000000E+00+
*       3.3315419118E+01               0
GRID*               2239               0-8.331882353E+000.0000000000E+00+
*       3.3305470588E+01               0
GRID*               2240               0-8.330838235E+000.0000000000E+00+
*       3.3295522059E+01               0
GRID*               2241               0-8.329794118E+000.0000000000E+00+
*       3.3285573529E+01               0
GRID*               2242               0-8.328750000E+000.0000000000E+00+
*       3.3275625000E+01               0
GRID*               2243               0-8.327705882E+000.0000000000E+00+
*       3.3265676471E+01               0
GRID*               2244               0-8.326661765E+000.0000000000E+00+
*       3.3255727941E+01               0
GRID*               2245               0-8.325617647E+000.0000000000E+00+
*       3.3245779412E+01               0
GRID*               2246               0-8.324573529E+000.0000000000E+00+
*       3.3235830882E+01               0
GRID*               2247               0-8.323529412E+000.0000000000E+00+
*       3.3225882353E+01               0
GRID*               2248               0-8.322485294E+000.0000000000E+00+
*       3.3215933824E+01               0
GRID*               2249               0-8.321441176E+000.0000000000E+00+
*       3.3205985294E+01               0
GRID*               2250               0-8.320397059E+000.0000000000E+00+
*       3.3196036765E+01               0
GRID*               2251               0-8.319352941E+000.0000000000E+00+
*       3.3186088235E+01               0
GRID*               2252               0-8.318308824E+000.0000000000E+00+
*       3.3176139706E+01               0
GRID*               2253               0-8.317264706E+000.0000000000E+00+
*       3.3166191176E+01               0
GRID*               2254               0-8.316220588E+000.0000000000E+00+
*       3.3156242647E+01               0
GRID*               2255               0-8.315176471E+000.0000000000E+00+
*       3.3146294118E+01               0
GRID*               2256               0-8.314132353E+000.0000000000E+00+
*       3.3136345588E+01               0
GRID*               2257               0-8.313088235E+000.0000000000E+00+
*       3.3126397059E+01               0
GRID*               2258               0-8.312044118E+000.0000000000E+00+
*       3.3116448529E+01               0
GRID*               2259               0-8.311000000E+000.0000000000E+00+
*       3.3106500000E+01               0
GRID*               2260               0-8.309955882E+000.0000000000E+00+
*       3.3096551471E+01               0
GRID*               2261               0-8.308911765E+000.0000000000E+00+
*       3.3086602941E+01               0
GRID*               2262               0-8.307867647E+000.0000000000E+00+
*       3.3076654412E+01               0
GRID*               2263               0-8.306823529E+000.0000000000E+00+
*       3.3066705882E+01               0
GRID*               2264               0-8.305779412E+000.0000000000E+00+
*       3.3056757353E+01               0
GRID*               2265               0-8.304735294E+000.0000000000E+00+
*       3.3046808824E+01               0
GRID*               2266               0-8.303691176E+000.0000000000E+00+
*       3.3036860294E+01               0
GRID*               2267               0-8.302647059E+000.0000000000E+00+
*       3.3026911765E+01               0
GRID*               2268               0-8.301602941E+000.0000000000E+00+
*       3.3016963235E+01               0
GRID*               2269               0-8.300558824E+000.0000000000E+00+
*       3.3007014706E+01               0
GRID*               2270               0-8.299514706E+000.0000000000E+00+
*       3.2997066176E+01               0
GRID*               2271               0-8.298470588E+000.0000000000E+00+
*       3.2987117647E+01               0
GRID*               2272               0-8.297426471E+000.0000000000E+00+
*       3.2977169118E+01               0
GRID*               2273               0-8.296382353E+000.0000000000E+00+
*       3.2967220588E+01               0
GRID*               2274               0-8.295338235E+000.0000000000E+00+
*       3.2957272059E+01               0
GRID*               2275               0-8.294294118E+000.0000000000E+00+
*       3.2947323529E+01               0
GRID*               2276               0-8.293250000E+000.0000000000E+00+
*       3.2937375000E+01               0
GRID*               2277               0-8.292205882E+000.0000000000E+00+
*       3.2927426471E+01               0
GRID*               2278               0-8.291161765E+000.0000000000E+00+
*       3.2917477941E+01               0
GRID*               2279               0-8.290117647E+000.0000000000E+00+
*       3.2907529412E+01               0
GRID*               2280               0-8.289073529E+000.0000000000E+00+
*       3.2897580882E+01               0
GRID*               2281               0-8.288029412E+000.0000000000E+00+
*       3.2887632353E+01               0
GRID*               2282               0-8.286985294E+000.0000000000E+00+
*       3.2877683824E+01               0
GRID*               2283               0-8.285941176E+000.0000000000E+00+
*       3.2867735294E+01               0
GRID*               2284               0-8.284897059E+000.0000000000E+00+
*       3.2857786765E+01               0
GRID*               2285               0-8.283852941E+000.0000000000E+00+
*       3.2847838235E+01               0
GRID*               2286               0-8.282808824E+000.0000000000E+00+
*       3.2837889706E+01               0
GRID*               2287               0-8.281764706E+000.0000000000E+00+
*       3.2827941176E+01               0
GRID*               2288               0-8.280720588E+000.0000000000E+00+
*       3.2817992647E+01               0
GRID*               2289               0-8.279676471E+000.0000000000E+00+
*       3.2808044118E+01               0
GRID*               2290               0-8.278632353E+000.0000000000E+00+
*       3.2798095588E+01               0
GRID*               2291               0-8.277588235E+000.0000000000E+00+
*       3.2788147059E+01               0
GRID*               2292               0-8.276544118E+000.0000000000E+00+
*       3.2778198529E+01               0
GRID*               2293               0-8.275500000E+000.0000000000E+00+
*       3.2768250000E+01               0
GRID*               2294               0-8.274455882E+000.0000000000E+00+
*       3.2758301471E+01               0
GRID*               2295               0-8.273411765E+000.0000000000E+00+
*       3.2748352941E+01               0
GRID*               2296               0-8.272367647E+000.0000000000E+00+
*       3.2738404412E+01               0
GRID*               2297               0-8.271323529E+000.0000000000E+00+
*       3.2728455882E+01               0
GRID*               2298               0-8.270279412E+000.0000000000E+00+
*       3.2718507353E+01               0
GRID*               2299               0-8.269235294E+000.0000000000E+00+
*       3.2708558824E+01               0
GRID*               2300               0-8.268191176E+000.0000000000E+00+
*       3.2698610294E+01               0
GRID*               2301               0-8.267147059E+000.0000000000E+00+
*       3.2688661765E+01               0
GRID*               2302               0-8.266102941E+000.0000000000E+00+
*       3.2678713235E+01               0
GRID*               2303               0-8.265058824E+000.0000000000E+00+
*       3.2668764706E+01               0
GRID*               2304               0-8.264014706E+000.0000000000E+00+
*       3.2658816176E+01               0
GRID*               2305               0-8.262970588E+000.0000000000E+00+
*       3.2648867647E+01               0
GRID*               2306               0-8.261926471E+000.0000000000E+00+
*       3.2638919118E+01               0
GRID*               2307               0-8.260882353E+000.0000000000E+00+
*       3.2628970588E+01               0
GRID*               2308               0-8.259838235E+000.0000000000E+00+
*       3.2619022059E+01               0
GRID*               2309               0-8.258794118E+000.0000000000E+00+
*       3.2609073529E+01               0
GRID*               2310               0-8.257750000E+000.0000000000E+00+
*       3.2599125000E+01               0
GRID*               2311               0-8.256705882E+000.0000000000E+00+
*       3.2589176471E+01               0
GRID*               2312               0-8.255661765E+000.0000000000E+00+
*       3.2579227941E+01               0
GRID*               2313               0-8.254617647E+000.0000000000E+00+
*       3.2569279412E+01               0
GRID*               2314               0-8.253573529E+000.0000000000E+00+
*       3.2559330882E+01               0
GRID*               2315               0-8.252529412E+000.0000000000E+00+
*       3.2549382353E+01               0
GRID*               2316               0-8.251485294E+000.0000000000E+00+
*       3.2539433824E+01               0
GRID*               2317               0-8.250441176E+000.0000000000E+00+
*       3.2529485294E+01               0
GRID*               2318               0-8.249397059E+000.0000000000E+00+
*       3.2519536765E+01               0
GRID*               2319               0-8.248352941E+000.0000000000E+00+
*       3.2509588235E+01               0
GRID*               2320               0-8.247308824E+000.0000000000E+00+
*       3.2499639706E+01               0
GRID*               2321               0-8.246264706E+000.0000000000E+00+
*       3.2489691176E+01               0
GRID*               2322               0-8.245220588E+000.0000000000E+00+
*       3.2479742647E+01               0
GRID*               2323               0-8.244176471E+000.0000000000E+00+
*       3.2469794118E+01               0
GRID*               2324               0-8.243132353E+000.0000000000E+00+
*       3.2459845588E+01               0
GRID*               2325               0-8.242088235E+000.0000000000E+00+
*       3.2449897059E+01               0
GRID*               2326               0-8.241044118E+000.0000000000E+00+
*       3.2439948529E+01               0
GRID*               2327               0-8.240000000E+000.0000000000E+00+
*       3.2430000000E+01               0
GRID*               2328               0-1.056000000E+010.0000000000E+00+
*       8.4840000000E+01               0
GRID*               2329               0-1.056000000E+010.0000000000E+00+
*       8.4830000000E+01               0
GRID*               2330               0-1.056000000E+010.0000000000E+00+
*       8.4820000000E+01               0
GRID*               2331               0-1.056000000E+010.0000000000E+00+
*       8.4810000000E+01               0
GRID*               2332               0-1.056000000E+010.0000000000E+00+
*       8.4800000000E+01               0
GRID*               2333               0-1.056000000E+010.0000000000E+00+
*       8.4790000000E+01               0
GRID*               2334               0-1.056000000E+010.0000000000E+00+
*       8.4780000000E+01               0
GRID*               2335               0-1.056000000E+010.0000000000E+00+
*       8.4770000000E+01               0
GRID*               2336               0-1.056000000E+010.0000000000E+00+
*       8.4760000000E+01               0
GRID*               2337               0-1.056000000E+010.0000000000E+00+
*       8.4750000000E+01               0
GRID*               2338               0-1.056000000E+010.0000000000E+00+
*       8.4740000000E+01               0
GRID*               2339               0-1.056000000E+010.0000000000E+00+
*       8.4730000000E+01               0
GRID*               2340               0-1.056000000E+010.0000000000E+00+
*       8.4720000000E+01               0
GRID*               2341               0-1.056000000E+010.0000000000E+00+
*       8.4710000000E+01               0
GRID*               2342               0-1.056000000E+010.0000000000E+00+
*       8.4700000000E+01               0
GRID*               2343               0-1.056000000E+010.0000000000E+00+
*       8.4690000000E+01               0
GRID*               2344               0-1.056000000E+010.0000000000E+00+
*       8.4680000000E+01               0
GRID*               2345               0-1.056000000E+010.0000000000E+00+
*       8.4670000000E+01               0
GRID*               2346               0-1.056000000E+010.0000000000E+00+
*       8.4660000000E+01               0
GRID*               2347               0-1.056000000E+010.0000000000E+00+
*       8.4650000000E+01               0
GRID*               2348               0-1.056000000E+010.0000000000E+00+
*       8.4640000000E+01               0
GRID*               2349               0-1.056000000E+010.0000000000E+00+
*       8.4630000000E+01               0
GRID*               2350               0-1.056000000E+010.0000000000E+00+
*       8.4620000000E+01               0
GRID*               2351               0-1.056000000E+010.0000000000E+00+
*       8.4610000000E+01               0
GRID*               2352               0-1.056000000E+010.0000000000E+00+
*       8.4600000000E+01               0
GRID*               2353               0-1.056000000E+010.0000000000E+00+
*       8.4590000000E+01               0
GRID*               2354               0-1.056000000E+010.0000000000E+00+
*       8.4580000000E+01               0
GRID*               2355               0-1.056000000E+010.0000000000E+00+
*       8.4570000000E+01               0
GRID*               2356               0-1.056000000E+010.0000000000E+00+
*       8.4560000000E+01               0
GRID*               2357               0-1.056000000E+010.0000000000E+00+
*       8.4550000000E+01               0
GRID*               2358               0-1.056000000E+010.0000000000E+00+
*       8.4540000000E+01               0
GRID*               2359               0-1.056000000E+010.0000000000E+00+
*       8.4530000000E+01               0
GRID*               2360               0-1.056000000E+010.0000000000E+00+
*       8.4520000000E+01               0
GRID*               2361               0-1.056000000E+010.0000000000E+00+
*       8.4510000000E+01               0
GRID*               2362               0-1.056000000E+010.0000000000E+00+
*       8.4500000000E+01               0
GRID*               2363               0-1.056000000E+010.0000000000E+00+
*       8.4490000000E+01               0
GRID*               2364               0-1.056000000E+010.0000000000E+00+
*       8.4480000000E+01               0
GRID*               2365               0-1.056000000E+010.0000000000E+00+
*       8.4470000000E+01               0
GRID*               2366               0-1.056000000E+010.0000000000E+00+
*       8.4460000000E+01               0
GRID*               2367               0-1.056000000E+010.0000000000E+00+
*       8.4450000000E+01               0
GRID*               2368               0-1.056000000E+010.0000000000E+00+
*       8.4440000000E+01               0
GRID*               2369               0-1.056000000E+010.0000000000E+00+
*       8.4430000000E+01               0
GRID*               2370               0-1.056000000E+010.0000000000E+00+
*       8.4420000000E+01               0
GRID*               2371               0-1.056000000E+010.0000000000E+00+
*       8.4410000000E+01               0
GRID*               2372               0-1.056000000E+010.0000000000E+00+
*       8.4400000000E+01               0
GRID*               2373               0-1.056000000E+010.0000000000E+00+
*       8.4390000000E+01               0
GRID*               2374               0-1.056000000E+010.0000000000E+00+
*       8.4380000000E+01               0
GRID*               2375               0-1.056000000E+010.0000000000E+00+
*       8.4370000000E+01               0
GRID*               2376               0-1.056000000E+010.0000000000E+00+
*       8.4360000000E+01               0
GRID*               2377               0-1.056000000E+010.0000000000E+00+
*       8.4350000000E+01               0
GRID*               2378               0-1.056000000E+010.0000000000E+00+
*       8.4340000000E+01               0
GRID*               2379               0-1.056000000E+010.0000000000E+00+
*       8.4330000000E+01               0
GRID*               2380               0-1.056000000E+010.0000000000E+00+
*       8.4320000000E+01               0
GRID*               2381               0-1.056000000E+010.0000000000E+00+
*       8.4310000000E+01               0
GRID*               2382               0-1.056000000E+010.0000000000E+00+
*       8.4300000000E+01               0
GRID*               2383               0-1.056000000E+010.0000000000E+00+
*       8.4290000000E+01               0
GRID*               2384               0-1.056000000E+010.0000000000E+00+
*       8.4280000000E+01               0
GRID*               2385               0-1.056000000E+010.0000000000E+00+
*       8.4270000000E+01               0
GRID*               2386               0-1.056000000E+010.0000000000E+00+
*       8.4260000000E+01               0
GRID*               2387               0-1.056000000E+010.0000000000E+00+
*       8.4250000000E+01               0
GRID*               2388               0-1.056000000E+010.0000000000E+00+
*       8.4240000000E+01               0
GRID*               2389               0-1.056000000E+010.0000000000E+00+
*       8.4230000000E+01               0
GRID*               2390               0-1.056000000E+010.0000000000E+00+
*       8.4220000000E+01               0
GRID*               2391               0-1.056000000E+010.0000000000E+00+
*       8.4210000000E+01               0
GRID*               2392               0-1.056000000E+010.0000000000E+00+
*       8.4200000000E+01               0
GRID*               2393               0-1.056000000E+010.0000000000E+00+
*       8.4190000000E+01               0
GRID*               2394               0-1.056000000E+010.0000000000E+00+
*       8.4180000000E+01               0
GRID*               2395               0-1.056000000E+010.0000000000E+00+
*       8.4170000000E+01               0
GRID*               2396               0-1.056000000E+010.0000000000E+00+
*       8.4160000000E+01               0
GRID*               2397               0-1.056000000E+010.0000000000E+00+
*       8.4150000000E+01               0
GRID*               2398               0-1.056000000E+010.0000000000E+00+
*       8.4140000000E+01               0
GRID*               2399               0-1.056000000E+010.0000000000E+00+
*       8.4130000000E+01               0
GRID*               2400               0-1.056000000E+010.0000000000E+00+
*       8.4120000000E+01               0
GRID*               2401               0-1.056000000E+010.0000000000E+00+
*       8.4110000000E+01               0
GRID*               2402               0-1.056000000E+010.0000000000E+00+
*       8.4100000000E+01               0
GRID*               2403               0-1.056000000E+010.0000000000E+00+
*       8.4090000000E+01               0
GRID*               2404               0-1.056000000E+010.0000000000E+00+
*       8.4080000000E+01               0
GRID*               2405               0-1.056000000E+010.0000000000E+00+
*       8.4070000000E+01               0
GRID*               2406               0-1.056000000E+010.0000000000E+00+
*       8.4060000000E+01               0
GRID*               2407               0-1.056000000E+010.0000000000E+00+
*       8.4050000000E+01               0
GRID*               2408               0-1.056000000E+010.0000000000E+00+
*       8.4040000000E+01               0
GRID*               2409               0-1.056000000E+010.0000000000E+00+
*       8.4030000000E+01               0
GRID*               2410               0-1.056000000E+010.0000000000E+00+
*       8.4020000000E+01               0
GRID*               2411               0-1.056000000E+010.0000000000E+00+
*       8.4010000000E+01               0
GRID*               2412               0-1.056000000E+010.0000000000E+00+
*       8.4000000000E+01               0
GRID*               2413               0-1.056000000E+010.0000000000E+00+
*       8.3990000000E+01               0
GRID*               2414               0-1.056000000E+010.0000000000E+00+
*       8.3980000000E+01               0
GRID*               2415               0-1.056000000E+010.0000000000E+00+
*       8.3970000000E+01               0
GRID*               2416               0-1.056000000E+010.0000000000E+00+
*       8.3960000000E+01               0
GRID*               2417               0-1.056000000E+010.0000000000E+00+
*       8.3950000000E+01               0
GRID*               2418               0-1.056000000E+010.0000000000E+00+
*       8.3940000000E+01               0
GRID*               2419               0-1.056000000E+010.0000000000E+00+
*       8.3930000000E+01               0
GRID*               2420               0-1.056000000E+010.0000000000E+00+
*       8.3920000000E+01               0
GRID*               2421               0-1.056000000E+010.0000000000E+00+
*       8.3910000000E+01               0
GRID*               2422               0-1.056000000E+010.0000000000E+00+
*       8.3900000000E+01               0
GRID*               2423               0-1.056000000E+010.0000000000E+00+
*       8.3890000000E+01               0
GRID*               2424               0-1.056000000E+010.0000000000E+00+
*       8.3880000000E+01               0
GRID*               2425               0-1.056000000E+010.0000000000E+00+
*       8.3870000000E+01               0
GRID*               2426               0-1.056000000E+010.0000000000E+00+
*       8.3860000000E+01               0
GRID*               2427               0-1.056000000E+010.0000000000E+00+
*       8.3850000000E+01               0
GRID*               2428               0-1.056000000E+010.0000000000E+00+
*       8.3840000000E+01               0
GRID*               2429               0-1.056000000E+010.0000000000E+00+
*       8.3830000000E+01               0
GRID*               2430               0-1.056000000E+010.0000000000E+00+
*       8.3820000000E+01               0
GRID*               2431               0-1.056000000E+010.0000000000E+00+
*       8.3810000000E+01               0
GRID*               2432               0-1.056000000E+010.0000000000E+00+
*       8.3800000000E+01               0
GRID*               2433               0-1.056000000E+010.0000000000E+00+
*       8.3790000000E+01               0
GRID*               2434               0-1.056000000E+010.0000000000E+00+
*       8.3780000000E+01               0
GRID*               2435               0-1.056000000E+010.0000000000E+00+
*       8.3770000000E+01               0
GRID*               2436               0-1.056000000E+010.0000000000E+00+
*       8.3760000000E+01               0
GRID*               2437               0-1.056000000E+010.0000000000E+00+
*       8.3750000000E+01               0
GRID*               2438               0-1.056000000E+010.0000000000E+00+
*       8.3740000000E+01               0
GRID*               2439               0-1.056000000E+010.0000000000E+00+
*       8.3730000000E+01               0
GRID*               2440               0-1.056000000E+010.0000000000E+00+
*       8.3720000000E+01               0
GRID*               2441               0-1.056000000E+010.0000000000E+00+
*       8.3710000000E+01               0
GRID*               2442               0-1.056000000E+010.0000000000E+00+
*       8.3700000000E+01               0
GRID*               2443               0-1.056000000E+010.0000000000E+00+
*       8.3690000000E+01               0
GRID*               2444               0-1.056000000E+010.0000000000E+00+
*       8.3680000000E+01               0
GRID*               2445               0-1.056000000E+010.0000000000E+00+
*       8.3670000000E+01               0
GRID*               2446               0-1.056000000E+010.0000000000E+00+
*       8.3660000000E+01               0
GRID*               2447               0-1.056000000E+010.0000000000E+00+
*       8.3650000000E+01               0
GRID*               2448               0-1.056000000E+010.0000000000E+00+
*       8.3640000000E+01               0
GRID*               2449               0-1.056000000E+010.0000000000E+00+
*       8.3630000000E+01               0
GRID*               2450               0-1.056000000E+010.0000000000E+00+
*       8.3620000000E+01               0
GRID*               2451               0-1.056000000E+010.0000000000E+00+
*       8.3610000000E+01               0
GRID*               2452               0-1.056000000E+010.0000000000E+00+
*       8.3600000000E+01               0
GRID*               2453               0-1.056000000E+010.0000000000E+00+
*       8.3590000000E+01               0
GRID*               2454               0-1.056000000E+010.0000000000E+00+
*       8.3580000000E+01               0
GRID*               2455               0-1.056000000E+010.0000000000E+00+
*       8.3570000000E+01               0
GRID*               2456               0-1.056000000E+010.0000000000E+00+
*       8.3560000000E+01               0
GRID*               2457               0-1.056000000E+010.0000000000E+00+
*       8.3550000000E+01               0
GRID*               2458               0-1.056000000E+010.0000000000E+00+
*       8.3540000000E+01               0
GRID*               2459               0-1.056000000E+010.0000000000E+00+
*       8.3530000000E+01               0
GRID*               2460               0-1.056000000E+010.0000000000E+00+
*       8.3520000000E+01               0
GRID*               2461               0-1.056000000E+010.0000000000E+00+
*       8.3510000000E+01               0
GRID*               2462               0-1.056000000E+010.0000000000E+00+
*       8.3500000000E+01               0
GRID*               2463               0-1.056000000E+010.0000000000E+00+
*       8.3490000000E+01               0
GRID*               2464               0-1.056000000E+010.0000000000E+00+
*       8.3480000000E+01               0
GRID*               2465               0-1.056000000E+010.0000000000E+00+
*       8.3470000000E+01               0
GRID*               2466               0-1.056000000E+010.0000000000E+00+
*       8.3460000000E+01               0
GRID*               2467               0-1.056000000E+010.0000000000E+00+
*       8.3450000000E+01               0
GRID*               2468               0-1.056000000E+010.0000000000E+00+
*       8.3440000000E+01               0
GRID*               2469               0-1.056000000E+010.0000000000E+00+
*       8.3430000000E+01               0
GRID*               2470               0-1.056000000E+010.0000000000E+00+
*       8.3420000000E+01               0
GRID*               2471               0-1.056000000E+010.0000000000E+00+
*       8.3410000000E+01               0
GRID*               2472               0-1.056000000E+010.0000000000E+00+
*       8.3400000000E+01               0
GRID*               2473               0-1.056000000E+010.0000000000E+00+
*       8.3390000000E+01               0
GRID*               2474               0-1.056000000E+010.0000000000E+00+
*       8.3380000000E+01               0
GRID*               2475               0-1.056000000E+010.0000000000E+00+
*       8.3370000000E+01               0
GRID*               2476               0-1.056000000E+010.0000000000E+00+
*       8.3360000000E+01               0
GRID*               2477               0-1.056000000E+010.0000000000E+00+
*       8.3350000000E+01               0
GRID*               2478               0-1.056000000E+010.0000000000E+00+
*       8.3340000000E+01               0
GRID*               2479               0-1.056000000E+010.0000000000E+00+
*       8.3330000000E+01               0
GRID*               2480               0-1.056000000E+010.0000000000E+00+
*       8.3320000000E+01               0
GRID*               2481               0-1.056000000E+010.0000000000E+00+
*       8.3310000000E+01               0
GRID*               2482               0-1.056000000E+010.0000000000E+00+
*       8.3300000000E+01               0
GRID*               2483               0-1.056000000E+010.0000000000E+00+
*       8.3290000000E+01               0
GRID*               2484               0-1.056000000E+010.0000000000E+00+
*       8.3280000000E+01               0
GRID*               2485               0-1.056000000E+010.0000000000E+00+
*       8.3270000000E+01               0
GRID*               2486               0-1.056000000E+010.0000000000E+00+
*       8.3260000000E+01               0
GRID*               2487               0-1.056000000E+010.0000000000E+00+
*       8.3250000000E+01               0
GRID*               2488               0-1.056000000E+010.0000000000E+00+
*       8.3240000000E+01               0
GRID*               2489               0-1.056000000E+010.0000000000E+00+
*       8.3230000000E+01               0
GRID*               2490               0-1.056000000E+010.0000000000E+00+
*       8.3220000000E+01               0
GRID*               2491               0-1.056000000E+010.0000000000E+00+
*       8.3210000000E+01               0
GRID*               2492               0-1.056000000E+010.0000000000E+00+
*       8.3200000000E+01               0
GRID*               2493               0-1.056000000E+010.0000000000E+00+
*       8.3190000000E+01               0
GRID*               2494               0-1.056000000E+010.0000000000E+00+
*       8.3180000000E+01               0
GRID*               2495               0-1.056000000E+010.0000000000E+00+
*       8.3170000000E+01               0
GRID*               2496               0-1.056000000E+010.0000000000E+00+
*       8.3160000000E+01               0
GRID*               2497               0-1.056000000E+010.0000000000E+00+
*       8.3150000000E+01               0
GRID*               2498               0-1.056000000E+010.0000000000E+00+
*       8.3140000000E+01               0
GRID*               2499               0-1.056000000E+010.0000000000E+00+
*       8.3130000000E+01               0
GRID*               2500               0-1.056000000E+010.0000000000E+00+
*       8.3120000000E+01               0
GRID*               2501               0-1.056000000E+010.0000000000E+00+
*       8.3110000000E+01               0
GRID*               2502               0-1.056000000E+010.0000000000E+00+
*       8.3100000000E+01               0
GRID*               2503               0-1.056000000E+010.0000000000E+00+
*       8.3090000000E+01               0
GRID*               2504               0-1.056000000E+010.0000000000E+00+
*       8.3080000000E+01               0
GRID*               2505               0-1.056000000E+010.0000000000E+00+
*       8.3070000000E+01               0
GRID*               2506               0-1.056000000E+010.0000000000E+00+
*       8.3060000000E+01               0
GRID*               2507               0-1.056000000E+010.0000000000E+00+
*       8.3050000000E+01               0
GRID*               2508               0-1.056000000E+010.0000000000E+00+
*       8.3040000000E+01               0
GRID*               2509               0-1.056000000E+010.0000000000E+00+
*       8.3030000000E+01               0
GRID*               2510               0-1.056000000E+010.0000000000E+00+
*       8.3020000000E+01               0
GRID*               2511               0-1.056000000E+010.0000000000E+00+
*       8.3010000000E+01               0
GRID*               2512               0-1.056000000E+010.0000000000E+00+
*       8.3000000000E+01               0
GRID*               2513               0-1.056000000E+010.0000000000E+00+
*       8.2990000000E+01               0
GRID*               2514               0-1.056000000E+010.0000000000E+00+
*       8.2980000000E+01               0
GRID*               2515               0-1.056000000E+010.0000000000E+00+
*       8.2970000000E+01               0
GRID*               2516               0-1.056000000E+010.0000000000E+00+
*       8.2960000000E+01               0
GRID*               2517               0-1.056000000E+010.0000000000E+00+
*       8.2950000000E+01               0
GRID*               2518               0-1.056000000E+010.0000000000E+00+
*       8.2940000000E+01               0
GRID*               2519               0-1.056000000E+010.0000000000E+00+
*       8.2930000000E+01               0
GRID*               2520               0-1.056000000E+010.0000000000E+00+
*       8.2920000000E+01               0
GRID*               2521               0-1.056000000E+010.0000000000E+00+
*       8.2910000000E+01               0
GRID*               2522               0-1.056000000E+010.0000000000E+00+
*       8.2900000000E+01               0
GRID*               2523               0-1.056000000E+010.0000000000E+00+
*       8.2890000000E+01               0
GRID*               2524               0-1.056000000E+010.0000000000E+00+
*       8.2880000000E+01               0
GRID*               2525               0-1.056000000E+010.0000000000E+00+
*       8.2870000000E+01               0
GRID*               2526               0-1.056000000E+010.0000000000E+00+
*       8.2860000000E+01               0
GRID*               2527               0-1.056000000E+010.0000000000E+00+
*       8.2850000000E+01               0
GRID*               2528               0-1.056000000E+010.0000000000E+00+
*       8.2840000000E+01               0
GRID*               2529               0-1.056000000E+010.0000000000E+00+
*       8.2830000000E+01               0
GRID*               2530               0-1.056000000E+010.0000000000E+00+
*       8.2820000000E+01               0
GRID*               2531               0-1.056000000E+010.0000000000E+00+
*       8.2810000000E+01               0
GRID*               2532               0-1.056000000E+010.0000000000E+00+
*       8.2800000000E+01               0
GRID*               2533               0-1.056000000E+010.0000000000E+00+
*       8.2790000000E+01               0
GRID*               2534               0-1.056000000E+010.0000000000E+00+
*       8.2780000000E+01               0
GRID*               2535               0-1.056000000E+010.0000000000E+00+
*       8.2770000000E+01               0
GRID*               2536               0-1.056000000E+010.0000000000E+00+
*       8.2760000000E+01               0
GRID*               2537               0-1.056000000E+010.0000000000E+00+
*       8.2750000000E+01               0
GRID*               2538               0-1.056000000E+010.0000000000E+00+
*       8.2740000000E+01               0
GRID*               2539               0-1.056000000E+010.0000000000E+00+
*       8.2730000000E+01               0
GRID*               2540               0-1.056000000E+010.0000000000E+00+
*       8.2720000000E+01               0
GRID*               2541               0-1.056000000E+010.0000000000E+00+
*       8.2710000000E+01               0
GRID*               2542               0-1.056000000E+010.0000000000E+00+
*       8.2700000000E+01               0
GRID*               2543               0-1.056000000E+010.0000000000E+00+
*       8.2690000000E+01               0
GRID*               2544               0-1.056000000E+010.0000000000E+00+
*       8.2680000000E+01               0
GRID*               2545               0-1.056000000E+010.0000000000E+00+
*       8.2670000000E+01               0
GRID*               2546               0-1.056000000E+010.0000000000E+00+
*       8.2660000000E+01               0
GRID*               2547               0-1.056000000E+010.0000000000E+00+
*       8.2650000000E+01               0
GRID*               2548               0-1.056000000E+010.0000000000E+00+
*       8.2640000000E+01               0
GRID*               2549               0-1.056000000E+010.0000000000E+00+
*       8.2630000000E+01               0
GRID*               2550               0-1.056000000E+010.0000000000E+00+
*       8.2620000000E+01               0
GRID*               2551               0-1.056000000E+010.0000000000E+00+
*       8.2610000000E+01               0
GRID*               2552               0-1.056000000E+010.0000000000E+00+
*       8.2600000000E+01               0
GRID*               2553               0-1.056000000E+010.0000000000E+00+
*       8.2590000000E+01               0
GRID*               2554               0-1.056000000E+010.0000000000E+00+
*       8.2580000000E+01               0
GRID*               2555               0-1.056000000E+010.0000000000E+00+
*       8.2570000000E+01               0
GRID*               2556               0-1.056000000E+010.0000000000E+00+
*       8.2560000000E+01               0
GRID*               2557               0-1.056000000E+010.0000000000E+00+
*       8.2550000000E+01               0
GRID*               2558               0-1.056000000E+010.0000000000E+00+
*       8.2540000000E+01               0
GRID*               2559               0-1.056000000E+010.0000000000E+00+
*       8.2530000000E+01               0
GRID*               2560               0-1.056000000E+010.0000000000E+00+
*       8.2520000000E+01               0
GRID*               2561               0-1.056000000E+010.0000000000E+00+
*       8.2510000000E+01               0
GRID*               2562               0-1.056000000E+010.0000000000E+00+
*       8.2500000000E+01               0
GRID*               2563               0-1.056000000E+010.0000000000E+00+
*       8.2490000000E+01               0
GRID*               2564               0-1.056000000E+010.0000000000E+00+
*       8.2480000000E+01               0
GRID*               2565               0-1.056000000E+010.0000000000E+00+
*       8.2470000000E+01               0
GRID*               2566               0-1.056000000E+010.0000000000E+00+
*       8.2460000000E+01               0
GRID*               2567               0-1.056000000E+010.0000000000E+00+
*       8.2450000000E+01               0
GRID*               2568               0-1.056000000E+010.0000000000E+00+
*       8.2440000000E+01               0
GRID*               2569               0-1.056000000E+010.0000000000E+00+
*       8.2430000000E+01               0
GRID*               2570               0-1.056000000E+010.0000000000E+00+
*       8.2420000000E+01               0
GRID*               2571               0-1.056000000E+010.0000000000E+00+
*       8.2410000000E+01               0
GRID*               2572               0-1.056000000E+010.0000000000E+00+
*       8.2400000000E+01               0
GRID*               2573               0-1.056000000E+010.0000000000E+00+
*       8.2390000000E+01               0
GRID*               2574               0-1.056000000E+010.0000000000E+00+
*       8.2380000000E+01               0
GRID*               2575               0-1.056000000E+010.0000000000E+00+
*       8.2370000000E+01               0
GRID*               2576               0-1.056000000E+010.0000000000E+00+
*       8.2360000000E+01               0
GRID*               2577               0-1.056000000E+010.0000000000E+00+
*       8.2350000000E+01               0
GRID*               2578               0-1.056000000E+010.0000000000E+00+
*       8.2340000000E+01               0
GRID*               2579               0-1.056000000E+010.0000000000E+00+
*       8.2330000000E+01               0
GRID*               2580               0-1.056000000E+010.0000000000E+00+
*       8.2320000000E+01               0
GRID*               2581               0-1.056000000E+010.0000000000E+00+
*       8.2310000000E+01               0
GRID*               2582               0-1.056000000E+010.0000000000E+00+
*       8.2300000000E+01               0
GRID*               2583               0-1.056000000E+010.0000000000E+00+
*       8.2290000000E+01               0
GRID*               2584               0-1.056000000E+010.0000000000E+00+
*       8.2280000000E+01               0
GRID*               2585               0-1.056000000E+010.0000000000E+00+
*       8.2270000000E+01               0
GRID*               2586               0-1.056000000E+010.0000000000E+00+
*       8.2260000000E+01               0
GRID*               2587               0-1.056000000E+010.0000000000E+00+
*       8.2250000000E+01               0
GRID*               2588               0-1.056000000E+010.0000000000E+00+
*       8.2240000000E+01               0
GRID*               2589               0-1.056000000E+010.0000000000E+00+
*       8.2230000000E+01               0
GRID*               2590               0-1.056000000E+010.0000000000E+00+
*       8.2220000000E+01               0
GRID*               2591               0-1.056000000E+010.0000000000E+00+
*       8.2210000000E+01               0
GRID*               2592               0-1.056000000E+010.0000000000E+00+
*       8.2200000000E+01               0
GRID*               2593               0-1.056000000E+010.0000000000E+00+
*       8.2190000000E+01               0
GRID*               2594               0-1.056000000E+010.0000000000E+00+
*       8.2180000000E+01               0
GRID*               2595               0-1.056000000E+010.0000000000E+00+
*       8.2170000000E+01               0
GRID*               2596               0-1.056000000E+010.0000000000E+00+
*       8.2160000000E+01               0
GRID*               2597               0-1.056000000E+010.0000000000E+00+
*       8.2150000000E+01               0
GRID*               2598               0-1.056000000E+010.0000000000E+00+
*       8.2140000000E+01               0
GRID*               2599               0-1.056000000E+010.0000000000E+00+
*       8.2130000000E+01               0
GRID*               2600               0-1.056000000E+010.0000000000E+00+
*       8.2120000000E+01               0
GRID*               2601               0-1.056000000E+010.0000000000E+00+
*       8.2110000000E+01               0
GRID*               2602               0-1.056000000E+010.0000000000E+00+
*       8.2100000000E+01               0
GRID*               2603               0-1.056000000E+010.0000000000E+00+
*       8.2090000000E+01               0
GRID*               2604               0-1.056000000E+010.0000000000E+00+
*       8.2080000000E+01               0
GRID*               2605               0-1.056000000E+010.0000000000E+00+
*       8.2070000000E+01               0
GRID*               2606               0-1.056000000E+010.0000000000E+00+
*       8.2060000000E+01               0
GRID*               2607               0-1.056000000E+010.0000000000E+00+
*       8.2050000000E+01               0
GRID*               2608               0-1.056000000E+010.0000000000E+00+
*       8.2040000000E+01               0
GRID*               2609               0-1.056000000E+010.0000000000E+00+
*       8.2030000000E+01               0
GRID*               2610               0-1.056000000E+010.0000000000E+00+
*       8.2020000000E+01               0
GRID*               2611               0-1.056000000E+010.0000000000E+00+
*       8.2010000000E+01               0
GRID*               2612               0-1.056000000E+010.0000000000E+00+
*       8.2000000000E+01               0
GRID*               2613               0-1.056000000E+010.0000000000E+00+
*       8.1990000000E+01               0
GRID*               2614               0-1.056000000E+010.0000000000E+00+
*       8.1980000000E+01               0
GRID*               2615               0-1.056000000E+010.0000000000E+00+
*       8.1970000000E+01               0
GRID*               2616               0-1.056000000E+010.0000000000E+00+
*       8.1960000000E+01               0
GRID*               2617               0-1.056000000E+010.0000000000E+00+
*       8.1950000000E+01               0
GRID*               2618               0-1.056000000E+010.0000000000E+00+
*       8.1940000000E+01               0
GRID*               2619               0-1.056000000E+010.0000000000E+00+
*       8.1930000000E+01               0
GRID*               2620               0-1.056000000E+010.0000000000E+00+
*       8.1920000000E+01               0
GRID*               2621               0-1.056000000E+010.0000000000E+00+
*       8.1910000000E+01               0
GRID*               2622               0-1.056000000E+010.0000000000E+00+
*       8.1900000000E+01               0
GRID*               2623               0-1.056000000E+010.0000000000E+00+
*       8.1890000000E+01               0
GRID*               2624               0-1.056000000E+010.0000000000E+00+
*       8.1880000000E+01               0
GRID*               2625               0-1.056000000E+010.0000000000E+00+
*       8.1870000000E+01               0
GRID*               2626               0-1.056000000E+010.0000000000E+00+
*       8.1860000000E+01               0
GRID*               2627               0-1.056000000E+010.0000000000E+00+
*       8.1850000000E+01               0
GRID*               2628               0-1.056000000E+010.0000000000E+00+
*       8.1840000000E+01               0
GRID*               2629               0-1.056000000E+010.0000000000E+00+
*       8.1830000000E+01               0
GRID*               2630               0-1.056000000E+010.0000000000E+00+
*       8.1820000000E+01               0
GRID*               2631               0-1.056000000E+010.0000000000E+00+
*       8.1810000000E+01               0
GRID*               2632               0-1.056000000E+010.0000000000E+00+
*       8.1800000000E+01               0
GRID*               2633               0-1.056000000E+010.0000000000E+00+
*       8.1790000000E+01               0
GRID*               2634               0-1.056000000E+010.0000000000E+00+
*       8.1780000000E+01               0
GRID*               2635               0-1.056000000E+010.0000000000E+00+
*       8.1770000000E+01               0
GRID*               2636               0-1.056000000E+010.0000000000E+00+
*       8.1760000000E+01               0
GRID*               2637               0-1.056000000E+010.0000000000E+00+
*       8.1750000000E+01               0
GRID*               2638               0-1.056000000E+010.0000000000E+00+
*       8.1740000000E+01               0
GRID*               2639               0-1.056000000E+010.0000000000E+00+
*       8.1730000000E+01               0
GRID*               2640               0-1.056000000E+010.0000000000E+00+
*       8.1720000000E+01               0
GRID*               2641               0-1.056000000E+010.0000000000E+00+
*       8.1710000000E+01               0
GRID*               2642               0-1.056000000E+010.0000000000E+00+
*       8.1700000000E+01               0
GRID*               2643               0-1.056000000E+010.0000000000E+00+
*       8.1690000000E+01               0
GRID*               2644               0-1.056000000E+010.0000000000E+00+
*       8.1680000000E+01               0
GRID*               2645               0-1.056000000E+010.0000000000E+00+
*       8.1670000000E+01               0
GRID*               2646               0-1.056000000E+010.0000000000E+00+
*       8.1660000000E+01               0
GRID*               2647               0-1.056000000E+010.0000000000E+00+
*       8.1650000000E+01               0
GRID*               2648               0-1.056000000E+010.0000000000E+00+
*       8.1640000000E+01               0
GRID*               2649               0-1.056000000E+010.0000000000E+00+
*       8.1630000000E+01               0
GRID*               2650               0-1.056000000E+010.0000000000E+00+
*       8.1620000000E+01               0
GRID*               2651               0-1.056000000E+010.0000000000E+00+
*       8.1610000000E+01               0
GRID*               2652               0-1.056000000E+010.0000000000E+00+
*       8.1600000000E+01               0
GRID*               2653               0-1.056000000E+010.0000000000E+00+
*       8.1590000000E+01               0
GRID*               2654               0-1.056000000E+010.0000000000E+00+
*       8.1580000000E+01               0
GRID*               2655               0-1.056000000E+010.0000000000E+00+
*       8.1570000000E+01               0
GRID*               2656               0-1.056000000E+010.0000000000E+00+
*       8.1560000000E+01               0
GRID*               2657               0-1.056000000E+010.0000000000E+00+
*       8.1550000000E+01               0
GRID*               2658               0-1.056000000E+010.0000000000E+00+
*       8.1540000000E+01               0
GRID*               2659               0-1.056000000E+010.0000000000E+00+
*       8.1530000000E+01               0
GRID*               2660               0-1.056000000E+010.0000000000E+00+
*       8.1520000000E+01               0
GRID*               2661               0-1.056000000E+010.0000000000E+00+
*       8.1510000000E+01               0
GRID*               2662               0-1.056000000E+010.0000000000E+00+
*       8.1500000000E+01               0
GRID*               2663               0-1.056000000E+010.0000000000E+00+
*       8.1490000000E+01               0
GRID*               2664               0-1.056000000E+010.0000000000E+00+
*       8.1480000000E+01               0
GRID*               2665               0-1.056000000E+010.0000000000E+00+
*       8.1470000000E+01               0
GRID*               2666               0-1.056000000E+010.0000000000E+00+
*       8.1460000000E+01               0
GRID*               2667               0-1.056000000E+010.0000000000E+00+
*       8.1450000000E+01               0
GRID*               2668               0-1.056000000E+010.0000000000E+00+
*       8.1440000000E+01               0
GRID*               2669               0-1.056000000E+010.0000000000E+00+
*       8.1430000000E+01               0
GRID*               2670               0-1.056000000E+010.0000000000E+00+
*       8.1420000000E+01               0
GRID*               2671               0-1.056000000E+010.0000000000E+00+
*       8.1410000000E+01               0
GRID*               2672               0-1.056000000E+010.0000000000E+00+
*       8.1400000000E+01               0
GRID*               2673               0-1.056000000E+010.0000000000E+00+
*       8.1390000000E+01               0
GRID*               2674               0-1.056000000E+010.0000000000E+00+
*       8.1380000000E+01               0
GRID*               2675               0-1.056000000E+010.0000000000E+00+
*       8.1370000000E+01               0
GRID*               2676               0-1.056000000E+010.0000000000E+00+
*       8.1360000000E+01               0
GRID*               2677               0-1.056000000E+010.0000000000E+00+
*       8.1350000000E+01               0
GRID*               2678               0-1.056000000E+010.0000000000E+00+
*       8.1340000000E+01               0
GRID*               2679               0-1.056000000E+010.0000000000E+00+
*       8.1330000000E+01               0
GRID*               2680               0-1.056000000E+010.0000000000E+00+
*       8.1320000000E+01               0
GRID*               2681               0-1.056000000E+010.0000000000E+00+
*       8.1310000000E+01               0
GRID*               2682               0-1.056000000E+010.0000000000E+00+
*       8.1300000000E+01               0
GRID*               2683               0-1.056000000E+010.0000000000E+00+
*       8.1290000000E+01               0
GRID*               2684               0-1.056000000E+010.0000000000E+00+
*       8.1280000000E+01               0
GRID*               2685               0-1.056000000E+010.0000000000E+00+
*       8.1270000000E+01               0
GRID*               2686               0-1.056000000E+010.0000000000E+00+
*       8.1260000000E+01               0
GRID*               2687               0-1.056000000E+010.0000000000E+00+
*       8.1250000000E+01               0
GRID*               2688               0-1.056000000E+010.0000000000E+00+
*       8.1240000000E+01               0
GRID*               2689               0-1.056000000E+010.0000000000E+00+
*       8.1230000000E+01               0
GRID*               2690               0-1.056000000E+010.0000000000E+00+
*       8.1220000000E+01               0
GRID*               2691               0-1.056000000E+010.0000000000E+00+
*       8.1210000000E+01               0
GRID*               2692               0-1.056000000E+010.0000000000E+00+
*       8.1200000000E+01               0
GRID*               2693               0-1.056000000E+010.0000000000E+00+
*       8.1190000000E+01               0
GRID*               2694               0-1.056000000E+010.0000000000E+00+
*       8.1180000000E+01               0
GRID*               2695               0-1.056000000E+010.0000000000E+00+
*       8.1170000000E+01               0
GRID*               2696               0-1.056000000E+010.0000000000E+00+
*       8.1160000000E+01               0
GRID*               2697               0-1.056000000E+010.0000000000E+00+
*       8.1150000000E+01               0
GRID*               2698               0-1.056000000E+010.0000000000E+00+
*       8.1140000000E+01               0
GRID*               2699               0-1.056000000E+010.0000000000E+00+
*       8.1130000000E+01               0
GRID*               2700               0-1.056000000E+010.0000000000E+00+
*       8.1120000000E+01               0
GRID*               2701               0-1.056000000E+010.0000000000E+00+
*       8.1110000000E+01               0
GRID*               2702               0-1.056000000E+010.0000000000E+00+
*       8.1100000000E+01               0
GRID*               2703               0-1.056000000E+010.0000000000E+00+
*       8.1090000000E+01               0
GRID*               2704               0-1.056000000E+010.0000000000E+00+
*       8.1080000000E+01               0
GRID*               2705               0-1.056000000E+010.0000000000E+00+
*       8.1070000000E+01               0
GRID*               2706               0-1.056000000E+010.0000000000E+00+
*       8.1060000000E+01               0
GRID*               2707               0-1.056000000E+010.0000000000E+00+
*       8.1050000000E+01               0
GRID*               2708               0-1.056000000E+010.0000000000E+00+
*       8.1040000000E+01               0
GRID*               2709               0-1.056000000E+010.0000000000E+00+
*       8.1030000000E+01               0
GRID*               2710               0-1.056000000E+010.0000000000E+00+
*       8.1020000000E+01               0
GRID*               2711               0-1.056000000E+010.0000000000E+00+
*       8.1010000000E+01               0
GRID*               2712               0-1.056000000E+010.0000000000E+00+
*       8.1000000000E+01               0
GRID*               2713               0-1.056000000E+010.0000000000E+00+
*       8.0990000000E+01               0
GRID*               2714               0-1.056000000E+010.0000000000E+00+
*       8.0980000000E+01               0
GRID*               2715               0-1.056000000E+010.0000000000E+00+
*       8.0970000000E+01               0
GRID*               2716               0-1.056000000E+010.0000000000E+00+
*       8.0960000000E+01               0
GRID*               2717               0-1.056000000E+010.0000000000E+00+
*       8.0950000000E+01               0
GRID*               2718               0-1.056000000E+010.0000000000E+00+
*       8.0940000000E+01               0
GRID*               2719               0-1.056000000E+010.0000000000E+00+
*       8.0930000000E+01               0
GRID*               2720               0-1.056000000E+010.0000000000E+00+
*       8.0920000000E+01               0
GRID*               2721               0-1.056000000E+010.0000000000E+00+
*       8.0910000000E+01               0
GRID*               2722               0-1.056000000E+010.0000000000E+00+
*       8.0900000000E+01               0
GRID*               2723               0-1.056000000E+010.0000000000E+00+
*       8.0890000000E+01               0
GRID*               2724               0-1.056000000E+010.0000000000E+00+
*       8.0880000000E+01               0
GRID*               2725               0-1.056000000E+010.0000000000E+00+
*       8.0870000000E+01               0
GRID*               2726               0-1.056000000E+010.0000000000E+00+
*       8.0860000000E+01               0
GRID*               2727               0-1.056000000E+010.0000000000E+00+
*       8.0850000000E+01               0
GRID*               2728               0-1.056000000E+010.0000000000E+00+
*       8.0840000000E+01               0
GRID*               2729               0-1.056000000E+010.0000000000E+00+
*       8.0830000000E+01               0
GRID*               2730               0-1.056000000E+010.0000000000E+00+
*       8.0820000000E+01               0
GRID*               2731               0-1.056000000E+010.0000000000E+00+
*       8.0810000000E+01               0
GRID*               2732               0-1.056000000E+010.0000000000E+00+
*       8.0800000000E+01               0
GRID*               2733               0-1.056000000E+010.0000000000E+00+
*       8.0790000000E+01               0
GRID*               2734               0-1.056000000E+010.0000000000E+00+
*       8.0780000000E+01               0
GRID*               2735               0-1.056000000E+010.0000000000E+00+
*       8.0770000000E+01               0
GRID*               2736               0-1.056000000E+010.0000000000E+00+
*       8.0760000000E+01               0
GRID*               2737               0-1.056000000E+010.0000000000E+00+
*       8.0750000000E+01               0
GRID*               2738               0-1.056000000E+010.0000000000E+00+
*       8.0740000000E+01               0
GRID*               2739               0-1.056000000E+010.0000000000E+00+
*       8.0730000000E+01               0
GRID*               2740               0-1.056000000E+010.0000000000E+00+
*       8.0720000000E+01               0
GRID*               2741               0-1.056000000E+010.0000000000E+00+
*       8.0710000000E+01               0
GRID*               2742               0-1.056000000E+010.0000000000E+00+
*       8.0700000000E+01               0
GRID*               2743               0-1.056000000E+010.0000000000E+00+
*       8.0690000000E+01               0
GRID*               2744               0-1.056000000E+010.0000000000E+00+
*       8.0680000000E+01               0
GRID*               2745               0-1.056000000E+010.0000000000E+00+
*       8.0670000000E+01               0
GRID*               2746               0-1.056000000E+010.0000000000E+00+
*       8.0660000000E+01               0
GRID*               2747               0-1.056000000E+010.0000000000E+00+
*       8.0650000000E+01               0
GRID*               2748               0-1.056000000E+010.0000000000E+00+
*       8.0640000000E+01               0
GRID*               2749               0-1.056000000E+010.0000000000E+00+
*       8.0630000000E+01               0
GRID*               2750               0-1.056000000E+010.0000000000E+00+
*       8.0620000000E+01               0
GRID*               2751               0-1.056000000E+010.0000000000E+00+
*       8.0610000000E+01               0
GRID*               2752               0-1.056000000E+010.0000000000E+00+
*       8.0600000000E+01               0
GRID*               2753               0-1.056000000E+010.0000000000E+00+
*       8.0590000000E+01               0
GRID*               2754               0-1.056000000E+010.0000000000E+00+
*       8.0580000000E+01               0
GRID*               2755               0-1.056000000E+010.0000000000E+00+
*       8.0570000000E+01               0
GRID*               2756               0-1.056000000E+010.0000000000E+00+
*       8.0560000000E+01               0
GRID*               2757               0-1.056000000E+010.0000000000E+00+
*       8.0550000000E+01               0
GRID*               2758               0-1.056000000E+010.0000000000E+00+
*       8.0540000000E+01               0
GRID*               2759               0-1.056000000E+010.0000000000E+00+
*       8.0530000000E+01               0
GRID*               2760               0-1.056000000E+010.0000000000E+00+
*       8.0520000000E+01               0
GRID*               2761               0-1.056000000E+010.0000000000E+00+
*       8.0510000000E+01               0
GRID*               2762               0-1.056000000E+010.0000000000E+00+
*       8.0500000000E+01               0
GRID*               2763               0-1.056000000E+010.0000000000E+00+
*       8.0490000000E+01               0
GRID*               2764               0-1.056000000E+010.0000000000E+00+
*       8.0480000000E+01               0
GRID*               2765               0-1.056000000E+010.0000000000E+00+
*       8.0470000000E+01               0
GRID*               2766               0-1.056000000E+010.0000000000E+00+
*       8.0460000000E+01               0
GRID*               2767               0-1.056000000E+010.0000000000E+00+
*       8.0450000000E+01               0
GRID*               2768               0-1.056000000E+010.0000000000E+00+
*       8.0440000000E+01               0
GRID*               2769               0-1.056000000E+010.0000000000E+00+
*       8.0430000000E+01               0
GRID*               2770               0-1.056000000E+010.0000000000E+00+
*       8.0420000000E+01               0
GRID*               2771               0-1.056000000E+010.0000000000E+00+
*       8.0410000000E+01               0
GRID*               2772               0-1.056000000E+010.0000000000E+00+
*       8.0400000000E+01               0
GRID*               2773               0-1.056000000E+010.0000000000E+00+
*       8.0390000000E+01               0
GRID*               2774               0-1.056000000E+010.0000000000E+00+
*       8.0380000000E+01               0
GRID*               2775               0-1.056000000E+010.0000000000E+00+
*       8.0370000000E+01               0
GRID*               2776               0-1.056000000E+010.0000000000E+00+
*       8.0360000000E+01               0
GRID*               2777               0-1.056000000E+010.0000000000E+00+
*       8.0350000000E+01               0
GRID*               2778               0-1.056000000E+010.0000000000E+00+
*       8.0340000000E+01               0
GRID*               2779               0-1.056000000E+010.0000000000E+00+
*       8.0330000000E+01               0
GRID*               2780               0-1.056000000E+010.0000000000E+00+
*       8.0320000000E+01               0
GRID*               2781               0-1.056000000E+010.0000000000E+00+
*       8.0310000000E+01               0
GRID*               2782               0-1.056000000E+010.0000000000E+00+
*       8.0300000000E+01               0
GRID*               2783               0-1.056000000E+010.0000000000E+00+
*       8.0290000000E+01               0
GRID*               2784               0-1.056000000E+010.0000000000E+00+
*       8.0280000000E+01               0
GRID*               2785               0-1.056000000E+010.0000000000E+00+
*       8.0270000000E+01               0
GRID*               2786               0-1.056000000E+010.0000000000E+00+
*       8.0260000000E+01               0
GRID*               2787               0-1.056000000E+010.0000000000E+00+
*       8.0250000000E+01               0
GRID*               2788               0-1.056000000E+010.0000000000E+00+
*       8.0240000000E+01               0
GRID*               2789               0-1.056000000E+010.0000000000E+00+
*       8.0230000000E+01               0
GRID*               2790               0-1.056000000E+010.0000000000E+00+
*       8.0220000000E+01               0
GRID*               2791               0-1.056000000E+010.0000000000E+00+
*       8.0210000000E+01               0
GRID*               2792               0-1.056000000E+010.0000000000E+00+
*       8.0200000000E+01               0
GRID*               2793               0-1.056000000E+010.0000000000E+00+
*       8.0190000000E+01               0
GRID*               2794               0-1.056000000E+010.0000000000E+00+
*       8.0180000000E+01               0
GRID*               2795               0-1.056000000E+010.0000000000E+00+
*       8.0170000000E+01               0
GRID*               2796               0-1.056000000E+010.0000000000E+00+
*       8.0160000000E+01               0
GRID*               2797               0-1.056000000E+010.0000000000E+00+
*       8.0150000000E+01               0
GRID*               2798               0-1.056000000E+010.0000000000E+00+
*       8.0140000000E+01               0
GRID*               2799               0-1.056000000E+010.0000000000E+00+
*       8.0130000000E+01               0
GRID*               2800               0-1.056000000E+010.0000000000E+00+
*       8.0120000000E+01               0
GRID*               2801               0-1.056000000E+010.0000000000E+00+
*       8.0110000000E+01               0
GRID*               2802               0-1.056000000E+010.0000000000E+00+
*       8.0100000000E+01               0
GRID*               2803               0-1.056000000E+010.0000000000E+00+
*       8.0090000000E+01               0
GRID*               2804               0-1.056000000E+010.0000000000E+00+
*       8.0080000000E+01               0
GRID*               2805               0-1.056000000E+010.0000000000E+00+
*       8.0070000000E+01               0
GRID*               2806               0-1.056000000E+010.0000000000E+00+
*       8.0060000000E+01               0
GRID*               2807               0-1.056000000E+010.0000000000E+00+
*       8.0050000000E+01               0
GRID*               2808               0-1.056000000E+010.0000000000E+00+
*       8.0040000000E+01               0
GRID*               2809               0-1.056000000E+010.0000000000E+00+
*       8.0030000000E+01               0
GRID*               2810               0-1.056000000E+010.0000000000E+00+
*       8.0020000000E+01               0
GRID*               2811               0-1.056000000E+010.0000000000E+00+
*       8.0010000000E+01               0
GRID*               2812               0-1.056000000E+010.0000000000E+00+
*       8.0000000000E+01               0
GRID*               2813               0-1.056000000E+010.0000000000E+00+
*       7.9990000000E+01               0
GRID*               2814               0-1.056000000E+010.0000000000E+00+
*       7.9980000000E+01               0
GRID*               2815               0-1.056000000E+010.0000000000E+00+
*       7.9970000000E+01               0
GRID*               2816               0-1.056000000E+010.0000000000E+00+
*       7.9960000000E+01               0
GRID*               2817               0-1.056000000E+010.0000000000E+00+
*       7.9950000000E+01               0
GRID*               2818               0-1.056000000E+010.0000000000E+00+
*       7.9940000000E+01               0
GRID*               2819               0-1.056000000E+010.0000000000E+00+
*       7.9930000000E+01               0
GRID*               2820               0-1.056000000E+010.0000000000E+00+
*       7.9920000000E+01               0
GRID*               2821               0-1.056000000E+010.0000000000E+00+
*       7.9910000000E+01               0
GRID*               2822               0-1.056000000E+010.0000000000E+00+
*       7.9900000000E+01               0
GRID*               2823               0-1.056000000E+010.0000000000E+00+
*       7.9890000000E+01               0
GRID*               2824               0-1.056000000E+010.0000000000E+00+
*       7.9880000000E+01               0
GRID*               2825               0-1.056000000E+010.0000000000E+00+
*       7.9870000000E+01               0
GRID*               2826               0-1.056000000E+010.0000000000E+00+
*       7.9860000000E+01               0
GRID*               2827               0-1.056000000E+010.0000000000E+00+
*       7.9850000000E+01               0
GRID*               2828               0-1.056000000E+010.0000000000E+00+
*       7.9840000000E+01               0
GRID*               2829               0-1.056000000E+010.0000000000E+00+
*       7.9830000000E+01               0
GRID*               2830               0-1.056000000E+010.0000000000E+00+
*       7.9820000000E+01               0
GRID*               2831               0-1.056000000E+010.0000000000E+00+
*       7.9810000000E+01               0
GRID*               2832               0-1.056000000E+010.0000000000E+00+
*       7.9800000000E+01               0
GRID*               2833               0-1.056000000E+010.0000000000E+00+
*       7.9790000000E+01               0
GRID*               2834               0-1.056000000E+010.0000000000E+00+
*       7.9780000000E+01               0
GRID*               2835               0-1.056000000E+010.0000000000E+00+
*       7.9770000000E+01               0
GRID*               2836               0-1.056000000E+010.0000000000E+00+
*       7.9760000000E+01               0
GRID*               2837               0-1.056000000E+010.0000000000E+00+
*       7.9750000000E+01               0
GRID*               2838               0-1.056000000E+010.0000000000E+00+
*       7.9740000000E+01               0
GRID*               2839               0-1.056000000E+010.0000000000E+00+
*       7.9730000000E+01               0
GRID*               2840               0-1.056000000E+010.0000000000E+00+
*       7.9720000000E+01               0
GRID*               2841               0-1.056000000E+010.0000000000E+00+
*       7.9710000000E+01               0
GRID*               2842               0-1.056000000E+010.0000000000E+00+
*       7.9700000000E+01               0
GRID*               2843               0-1.056000000E+010.0000000000E+00+
*       7.9690000000E+01               0
GRID*               2844               0-1.056000000E+010.0000000000E+00+
*       7.9680000000E+01               0
GRID*               2845               0-1.056000000E+010.0000000000E+00+
*       7.9670000000E+01               0
GRID*               2846               0-1.056000000E+010.0000000000E+00+
*       7.9660000000E+01               0
GRID*               2847               0-1.056000000E+010.0000000000E+00+
*       7.9650000000E+01               0
GRID*               2848               0-1.056000000E+010.0000000000E+00+
*       7.9640000000E+01               0
GRID*               2849               0-1.056000000E+010.0000000000E+00+
*       7.9630000000E+01               0
GRID*               2850               0-1.056000000E+010.0000000000E+00+
*       7.9620000000E+01               0
GRID*               2851               0-1.056000000E+010.0000000000E+00+
*       7.9610000000E+01               0
GRID*               2852               0-1.056000000E+010.0000000000E+00+
*       7.9600000000E+01               0
GRID*               2853               0-1.056000000E+010.0000000000E+00+
*       7.9590000000E+01               0
GRID*               2854               0-1.056000000E+010.0000000000E+00+
*       7.9580000000E+01               0
GRID*               2855               0-1.056000000E+010.0000000000E+00+
*       7.9570000000E+01               0
GRID*               2856               0-1.056000000E+010.0000000000E+00+
*       7.9560000000E+01               0
GRID*               2857               0-1.056000000E+010.0000000000E+00+
*       7.9550000000E+01               0
GRID*               2858               0-1.056000000E+010.0000000000E+00+
*       7.9540000000E+01               0
GRID*               2859               0-1.056000000E+010.0000000000E+00+
*       7.9530000000E+01               0
GRID*               2860               0-1.056000000E+010.0000000000E+00+
*       7.9520000000E+01               0
GRID*               2861               0-1.056000000E+010.0000000000E+00+
*       7.9510000000E+01               0
GRID*               2862               0-1.056000000E+010.0000000000E+00+
*       7.9500000000E+01               0
GRID*               2863               0-1.056000000E+010.0000000000E+00+
*       7.9490000000E+01               0
GRID*               2864               0-1.056000000E+010.0000000000E+00+
*       7.9480000000E+01               0
GRID*               2865               0-1.056000000E+010.0000000000E+00+
*       7.9470000000E+01               0
GRID*               2866               0-1.056000000E+010.0000000000E+00+
*       7.9460000000E+01               0
GRID*               2867               0-1.056000000E+010.0000000000E+00+
*       7.9450000000E+01               0
GRID*               2868               0-1.056000000E+010.0000000000E+00+
*       7.9440000000E+01               0
GRID*               2869               0-1.056000000E+010.0000000000E+00+
*       7.9430000000E+01               0
GRID*               2870               0-1.056000000E+010.0000000000E+00+
*       7.9420000000E+01               0
GRID*               2871               0-1.056000000E+010.0000000000E+00+
*       7.9410000000E+01               0
GRID*               2872               0-1.056000000E+010.0000000000E+00+
*       7.9400000000E+01               0
GRID*               2873               0-1.056000000E+010.0000000000E+00+
*       7.9390000000E+01               0
GRID*               2874               0-1.056000000E+010.0000000000E+00+
*       7.9380000000E+01               0
GRID*               2875               0-1.056000000E+010.0000000000E+00+
*       7.9370000000E+01               0
GRID*               2876               0-1.056000000E+010.0000000000E+00+
*       7.9360000000E+01               0
GRID*               2877               0-1.056000000E+010.0000000000E+00+
*       7.9350000000E+01               0
GRID*               2878               0-1.056000000E+010.0000000000E+00+
*       7.9340000000E+01               0
GRID*               2879               0-1.056000000E+010.0000000000E+00+
*       7.9330000000E+01               0
GRID*               2880               0-1.056000000E+010.0000000000E+00+
*       7.9320000000E+01               0
GRID*               2881               0-1.056000000E+010.0000000000E+00+
*       7.9310000000E+01               0
GRID*               2882               0-1.056000000E+010.0000000000E+00+
*       7.9300000000E+01               0
GRID*               2883               0-1.056000000E+010.0000000000E+00+
*       7.9290000000E+01               0
GRID*               2884               0-1.056000000E+010.0000000000E+00+
*       7.9280000000E+01               0
GRID*               2885               0-1.056000000E+010.0000000000E+00+
*       7.9270000000E+01               0
GRID*               2886               0-1.056000000E+010.0000000000E+00+
*       7.9260000000E+01               0
GRID*               2887               0-1.056000000E+010.0000000000E+00+
*       7.9250000000E+01               0
GRID*               2888               0-1.056000000E+010.0000000000E+00+
*       7.9240000000E+01               0
GRID*               2889               0-1.056000000E+010.0000000000E+00+
*       7.9230000000E+01               0
GRID*               2890               0-1.056000000E+010.0000000000E+00+
*       7.9220000000E+01               0
GRID*               2891               0-1.056000000E+010.0000000000E+00+
*       7.9210000000E+01               0
GRID*               2892               0-1.056000000E+010.0000000000E+00+
*       7.9200000000E+01               0
GRID*               2893               0-1.056000000E+010.0000000000E+00+
*       7.9190000000E+01               0
GRID*               2894               0-1.056000000E+010.0000000000E+00+
*       7.9180000000E+01               0
GRID*               2895               0-1.056000000E+010.0000000000E+00+
*       7.9170000000E+01               0
GRID*               2896               0-1.056000000E+010.0000000000E+00+
*       7.9160000000E+01               0
GRID*               2897               0-1.056000000E+010.0000000000E+00+
*       7.9150000000E+01               0
GRID*               2898               0-1.056000000E+010.0000000000E+00+
*       7.9140000000E+01               0
GRID*               2899               0-1.056000000E+010.0000000000E+00+
*       7.9130000000E+01               0
GRID*               2900               0-1.056000000E+010.0000000000E+00+
*       7.9120000000E+01               0
GRID*               2901               0-1.056000000E+010.0000000000E+00+
*       7.9110000000E+01               0
GRID*               2902               0-1.056000000E+010.0000000000E+00+
*       7.9100000000E+01               0
GRID*               2903               0-1.056000000E+010.0000000000E+00+
*       7.9090000000E+01               0
GRID*               2904               0-1.056000000E+010.0000000000E+00+
*       7.9080000000E+01               0
GRID*               2905               0-1.056000000E+010.0000000000E+00+
*       7.9070000000E+01               0
GRID*               2906               0-1.056000000E+010.0000000000E+00+
*       7.9060000000E+01               0
GRID*               2907               0-1.056000000E+010.0000000000E+00+
*       7.9050000000E+01               0
GRID*               2908               0-1.056000000E+010.0000000000E+00+
*       7.9040000000E+01               0
GRID*               2909               0-1.056000000E+010.0000000000E+00+
*       7.9030000000E+01               0
GRID*               2910               0-1.056000000E+010.0000000000E+00+
*       7.9020000000E+01               0
GRID*               2911               0-1.056000000E+010.0000000000E+00+
*       7.9010000000E+01               0
GRID*               2912               0-1.056000000E+010.0000000000E+00+
*       7.9000000000E+01               0
GRID*               2913               0-1.056000000E+010.0000000000E+00+
*       7.8990000000E+01               0
GRID*               2914               0-1.056000000E+010.0000000000E+00+
*       7.8980000000E+01               0
GRID*               2915               0-1.056000000E+010.0000000000E+00+
*       7.8970000000E+01               0
GRID*               2916               0-1.056000000E+010.0000000000E+00+
*       7.8960000000E+01               0
GRID*               2917               0-1.056000000E+010.0000000000E+00+
*       7.8950000000E+01               0
GRID*               2918               0-1.056000000E+010.0000000000E+00+
*       7.8940000000E+01               0
GRID*               2919               0-1.056000000E+010.0000000000E+00+
*       7.8930000000E+01               0
GRID*               2920               0-1.056000000E+010.0000000000E+00+
*       7.8920000000E+01               0
GRID*               2921               0-1.056000000E+010.0000000000E+00+
*       7.8910000000E+01               0
GRID*               2922               0-1.056000000E+010.0000000000E+00+
*       7.8900000000E+01               0
GRID*               2923               0-1.056000000E+010.0000000000E+00+
*       7.8890000000E+01               0
GRID*               2924               0-1.056000000E+010.0000000000E+00+
*       7.8880000000E+01               0
GRID*               2925               0-1.056000000E+010.0000000000E+00+
*       7.8870000000E+01               0
GRID*               2926               0-1.056000000E+010.0000000000E+00+
*       7.8860000000E+01               0
GRID*               2927               0-1.056000000E+010.0000000000E+00+
*       7.8850000000E+01               0
GRID*               2928               0-1.056000000E+010.0000000000E+00+
*       7.8840000000E+01               0
GRID*               2929               0-1.056000000E+010.0000000000E+00+
*       7.8830000000E+01               0
GRID*               2930               0-1.056000000E+010.0000000000E+00+
*       7.8820000000E+01               0
GRID*               2931               0-1.056000000E+010.0000000000E+00+
*       7.8810000000E+01               0
GRID*               2932               0-1.056000000E+010.0000000000E+00+
*       7.8800000000E+01               0
GRID*               2933               0-1.056000000E+010.0000000000E+00+
*       7.8790000000E+01               0
GRID*               2934               0-1.056000000E+010.0000000000E+00+
*       7.8780000000E+01               0
GRID*               2935               0-1.056000000E+010.0000000000E+00+
*       7.8770000000E+01               0
GRID*               2936               0-1.056000000E+010.0000000000E+00+
*       7.8760000000E+01               0
GRID*               2937               0-1.056000000E+010.0000000000E+00+
*       7.8750000000E+01               0
GRID*               2938               0-1.056000000E+010.0000000000E+00+
*       7.8740000000E+01               0
GRID*               2939               0-1.056000000E+010.0000000000E+00+
*       7.8730000000E+01               0
GRID*               2940               0-1.056000000E+010.0000000000E+00+
*       7.8720000000E+01               0
GRID*               2941               0-1.056000000E+010.0000000000E+00+
*       7.8710000000E+01               0
GRID*               2942               0-1.056000000E+010.0000000000E+00+
*       7.8700000000E+01               0
GRID*               2943               0-1.056000000E+010.0000000000E+00+
*       7.8690000000E+01               0
GRID*               2944               0-1.056000000E+010.0000000000E+00+
*       7.8680000000E+01               0
GRID*               2945               0-1.056000000E+010.0000000000E+00+
*       7.8670000000E+01               0
GRID*               2946               0-1.056000000E+010.0000000000E+00+
*       7.8660000000E+01               0
GRID*               2947               0-1.056000000E+010.0000000000E+00+
*       7.8650000000E+01               0
GRID*               2948               0-1.056000000E+010.0000000000E+00+
*       7.8640000000E+01               0
GRID*               2949               0-1.056000000E+010.0000000000E+00+
*       7.8630000000E+01               0
GRID*               2950               0-1.056000000E+010.0000000000E+00+
*       7.8620000000E+01               0
GRID*               2951               0-1.056000000E+010.0000000000E+00+
*       7.8610000000E+01               0
GRID*               2952               0-1.056000000E+010.0000000000E+00+
*       7.8600000000E+01               0
GRID*               2953               0-1.056000000E+010.0000000000E+00+
*       7.8590000000E+01               0
GRID*               2954               0-1.056000000E+010.0000000000E+00+
*       7.8580000000E+01               0
GRID*               2955               0-1.056000000E+010.0000000000E+00+
*       7.8570000000E+01               0
GRID*               2956               0-1.056000000E+010.0000000000E+00+
*       7.8560000000E+01               0
GRID*               2957               0-1.056000000E+010.0000000000E+00+
*       7.8550000000E+01               0
GRID*               2958               0-1.056000000E+010.0000000000E+00+
*       7.8540000000E+01               0
GRID*               2959               0-1.056000000E+010.0000000000E+00+
*       7.8530000000E+01               0
GRID*               2960               0-1.056000000E+010.0000000000E+00+
*       7.8520000000E+01               0
GRID*               2961               0-1.056000000E+010.0000000000E+00+
*       7.8510000000E+01               0
GRID*               2962               0-1.056000000E+010.0000000000E+00+
*       7.8500000000E+01               0
GRID*               2963               0-1.056000000E+010.0000000000E+00+
*       7.8490000000E+01               0
GRID*               2964               0-1.056000000E+010.0000000000E+00+
*       7.8480000000E+01               0
GRID*               2965               0-1.056000000E+010.0000000000E+00+
*       7.8470000000E+01               0
GRID*               2966               0-1.056000000E+010.0000000000E+00+
*       7.8460000000E+01               0
GRID*               2967               0-1.056000000E+010.0000000000E+00+
*       7.8450000000E+01               0
GRID*               2968               0-1.056000000E+010.0000000000E+00+
*       7.8440000000E+01               0
GRID*               2969               0-1.056000000E+010.0000000000E+00+
*       7.8430000000E+01               0
GRID*               2970               0-1.056000000E+010.0000000000E+00+
*       7.8420000000E+01               0
GRID*               2971               0-1.056000000E+010.0000000000E+00+
*       7.8410000000E+01               0
GRID*               2972               0-1.056000000E+010.0000000000E+00+
*       7.8400000000E+01               0
GRID*               2973               0-1.056000000E+010.0000000000E+00+
*       7.8390000000E+01               0
GRID*               2974               0-1.056000000E+010.0000000000E+00+
*       7.8380000000E+01               0
GRID*               2975               0-1.056000000E+010.0000000000E+00+
*       7.8370000000E+01               0
GRID*               2976               0-1.056000000E+010.0000000000E+00+
*       7.8360000000E+01               0
GRID*               2977               0-1.056000000E+010.0000000000E+00+
*       7.8350000000E+01               0
GRID*               2978               0-1.056000000E+010.0000000000E+00+
*       7.8340000000E+01               0
GRID*               2979               0-1.056000000E+010.0000000000E+00+
*       7.8330000000E+01               0
GRID*               2980               0-1.056000000E+010.0000000000E+00+
*       7.8320000000E+01               0
GRID*               2981               0-1.056000000E+010.0000000000E+00+
*       7.8310000000E+01               0
GRID*               2982               0-1.056000000E+010.0000000000E+00+
*       7.8300000000E+01               0
GRID*               2983               0-1.056000000E+010.0000000000E+00+
*       7.8290000000E+01               0
GRID*               2984               0-1.056000000E+010.0000000000E+00+
*       7.8280000000E+01               0
GRID*               2985               0-1.056000000E+010.0000000000E+00+
*       7.8270000000E+01               0
GRID*               2986               0-1.056000000E+010.0000000000E+00+
*       7.8260000000E+01               0
GRID*               2987               0-1.056000000E+010.0000000000E+00+
*       7.8250000000E+01               0
GRID*               2988               0-1.056000000E+010.0000000000E+00+
*       7.8240000000E+01               0
GRID*               2989               0-1.056000000E+010.0000000000E+00+
*       7.8230000000E+01               0
GRID*               2990               0-1.056000000E+010.0000000000E+00+
*       7.8220000000E+01               0
GRID*               2991               0-1.056000000E+010.0000000000E+00+
*       7.8210000000E+01               0
GRID*               2992               0-1.056000000E+010.0000000000E+00+
*       7.8200000000E+01               0
GRID*               2993               0-1.056000000E+010.0000000000E+00+
*       7.8190000000E+01               0
GRID*               2994               0-1.056000000E+010.0000000000E+00+
*       7.8180000000E+01               0
GRID*               2995               0-1.056000000E+010.0000000000E+00+
*       7.8170000000E+01               0
GRID*               2996               0-1.056000000E+010.0000000000E+00+
*       7.8160000000E+01               0
GRID*               2997               0-1.056000000E+010.0000000000E+00+
*       7.8150000000E+01               0
GRID*               2998               0-1.056000000E+010.0000000000E+00+
*       7.8140000000E+01               0
GRID*               2999               0-1.056000000E+010.0000000000E+00+
*       7.8130000000E+01               0
GRID*               3000               0-1.056000000E+010.0000000000E+00+
*       7.8120000000E+01               0
GRID*               3001               0-1.056000000E+010.0000000000E+00+
*       7.8110000000E+01               0
GRID*               3002               0-1.056000000E+010.0000000000E+00+
*       7.8100000000E+01               0
GRID*               3003               0-1.056000000E+010.0000000000E+00+
*       7.8090000000E+01               0
GRID*               3004               0-1.056000000E+010.0000000000E+00+
*       7.8080000000E+01               0
GRID*               3005               0-1.056000000E+010.0000000000E+00+
*       7.8070000000E+01               0
GRID*               3006               0-1.056000000E+010.0000000000E+00+
*       7.8060000000E+01               0
GRID*               3007               0-1.056000000E+010.0000000000E+00+
*       7.8050000000E+01               0
GRID*               3008               0-1.056000000E+010.0000000000E+00+
*       7.8040000000E+01               0
GRID*               3009               0-1.056000000E+010.0000000000E+00+
*       7.8030000000E+01               0
GRID*               3010               0-1.056000000E+010.0000000000E+00+
*       7.8020000000E+01               0
GRID*               3011               0-1.056000000E+010.0000000000E+00+
*       7.8010000000E+01               0
GRID*               3012               0-1.056000000E+010.0000000000E+00+
*       7.8000000000E+01               0
GRID*               3013               0-1.056000000E+010.0000000000E+00+
*       7.7990000000E+01               0
GRID*               3014               0-1.056000000E+010.0000000000E+00+
*       7.7980000000E+01               0
GRID*               3015               0-1.056000000E+010.0000000000E+00+
*       7.7970000000E+01               0
GRID*               3016               0-1.056000000E+010.0000000000E+00+
*       7.7960000000E+01               0
GRID*               3017               0-1.056000000E+010.0000000000E+00+
*       7.7950000000E+01               0
GRID*               3018               0-1.056000000E+010.0000000000E+00+
*       7.7940000000E+01               0
GRID*               3019               0-1.056000000E+010.0000000000E+00+
*       7.7930000000E+01               0
GRID*               3020               0-1.056000000E+010.0000000000E+00+
*       7.7920000000E+01               0
GRID*               3021               0-1.056000000E+010.0000000000E+00+
*       7.7910000000E+01               0
GRID*               3022               0-1.056000000E+010.0000000000E+00+
*       7.7900000000E+01               0
GRID*               3023               0-1.056000000E+010.0000000000E+00+
*       7.7890000000E+01               0
GRID*               3024               0-1.056000000E+010.0000000000E+00+
*       7.7880000000E+01               0
GRID*               3025               0-1.056000000E+010.0000000000E+00+
*       7.7870000000E+01               0
GRID*               3026               0-1.056000000E+010.0000000000E+00+
*       7.7860000000E+01               0
GRID*               3027               0-1.056000000E+010.0000000000E+00+
*       7.7850000000E+01               0
GRID*               3028               0-1.056000000E+010.0000000000E+00+
*       7.7840000000E+01               0
GRID*               3029               0-1.056000000E+010.0000000000E+00+
*       7.7830000000E+01               0
GRID*               3030               0-1.056000000E+010.0000000000E+00+
*       7.7820000000E+01               0
GRID*               3031               0-1.056000000E+010.0000000000E+00+
*       7.7810000000E+01               0
GRID*               3032               0-1.056000000E+010.0000000000E+00+
*       7.7800000000E+01               0
GRID*               3033               0-1.056000000E+010.0000000000E+00+
*       7.7790000000E+01               0
GRID*               3034               0-1.056000000E+010.0000000000E+00+
*       7.7780000000E+01               0
GRID*               3035               0-1.056000000E+010.0000000000E+00+
*       7.7770000000E+01               0
GRID*               3036               0-1.056000000E+010.0000000000E+00+
*       7.7760000000E+01               0
GRID*               3037               0-1.056000000E+010.0000000000E+00+
*       7.7750000000E+01               0
GRID*               3038               0-1.056000000E+010.0000000000E+00+
*       7.7740000000E+01               0
GRID*               3039               0-1.056000000E+010.0000000000E+00+
*       7.7730000000E+01               0
GRID*               3040               0-1.056000000E+010.0000000000E+00+
*       7.7720000000E+01               0
GRID*               3041               0-1.056000000E+010.0000000000E+00+
*       7.7710000000E+01               0
GRID*               3042               0-1.056000000E+010.0000000000E+00+
*       7.7700000000E+01               0
GRID*               3043               0-1.056000000E+010.0000000000E+00+
*       7.7690000000E+01               0
GRID*               3044               0-1.056000000E+010.0000000000E+00+
*       7.7680000000E+01               0
GRID*               3045               0-1.056000000E+010.0000000000E+00+
*       7.7670000000E+01               0
GRID*               3046               0-1.056000000E+010.0000000000E+00+
*       7.7660000000E+01               0
GRID*               3047               0-1.056000000E+010.0000000000E+00+
*       7.7650000000E+01               0
GRID*               3048               0-1.056000000E+010.0000000000E+00+
*       7.7640000000E+01               0
GRID*               3049               0-1.056000000E+010.0000000000E+00+
*       7.7630000000E+01               0
GRID*               3050               0-1.056000000E+010.0000000000E+00+
*       7.7620000000E+01               0
GRID*               3051               0-1.056000000E+010.0000000000E+00+
*       7.7610000000E+01               0
GRID*               3052               0-1.056000000E+010.0000000000E+00+
*       7.7600000000E+01               0
GRID*               3053               0-1.056000000E+010.0000000000E+00+
*       7.7590000000E+01               0
GRID*               3054               0-1.056000000E+010.0000000000E+00+
*       7.7580000000E+01               0
GRID*               3055               0-1.056000000E+010.0000000000E+00+
*       7.7570000000E+01               0
GRID*               3056               0-1.056000000E+010.0000000000E+00+
*       7.7560000000E+01               0
GRID*               3057               0-1.056000000E+010.0000000000E+00+
*       7.7550000000E+01               0
GRID*               3058               0-1.056000000E+010.0000000000E+00+
*       7.7540000000E+01               0
GRID*               3059               0-1.056000000E+010.0000000000E+00+
*       7.7530000000E+01               0
GRID*               3060               0-1.056000000E+010.0000000000E+00+
*       7.7520000000E+01               0
GRID*               3061               0-1.056000000E+010.0000000000E+00+
*       7.7510000000E+01               0
GRID*               3062               0-1.056000000E+010.0000000000E+00+
*       7.7500000000E+01               0
GRID*               3063               0-1.056000000E+010.0000000000E+00+
*       7.7490000000E+01               0
GRID*               3064               0-1.056000000E+010.0000000000E+00+
*       7.7480000000E+01               0
GRID*               3065               0-1.056000000E+010.0000000000E+00+
*       7.7470000000E+01               0
GRID*               3066               0-1.056000000E+010.0000000000E+00+
*       7.7460000000E+01               0
GRID*               3067               0-1.056000000E+010.0000000000E+00+
*       7.7450000000E+01               0
GRID*               3068               0-1.056000000E+010.0000000000E+00+
*       7.7440000000E+01               0
GRID*               3069               0-1.056000000E+010.0000000000E+00+
*       7.7430000000E+01               0
GRID*               3070               0-1.056000000E+010.0000000000E+00+
*       7.7420000000E+01               0
GRID*               3071               0-1.056000000E+010.0000000000E+00+
*       7.7410000000E+01               0
GRID*               3072               0-1.056000000E+010.0000000000E+00+
*       7.7400000000E+01               0
GRID*               3073               0-1.056000000E+010.0000000000E+00+
*       7.7390000000E+01               0
GRID*               3074               0-1.056000000E+010.0000000000E+00+
*       7.7380000000E+01               0
GRID*               3075               0-1.056000000E+010.0000000000E+00+
*       7.7370000000E+01               0
GRID*               3076               0-1.056000000E+010.0000000000E+00+
*       7.7360000000E+01               0
GRID*               3077               0-1.056000000E+010.0000000000E+00+
*       7.7350000000E+01               0
GRID*               3078               0-1.056000000E+010.0000000000E+00+
*       7.7340000000E+01               0
GRID*               3079               0-1.056000000E+010.0000000000E+00+
*       7.7330000000E+01               0
GRID*               3080               0-1.056000000E+010.0000000000E+00+
*       7.7320000000E+01               0
GRID*               3081               0-1.056000000E+010.0000000000E+00+
*       7.7310000000E+01               0
GRID*               3082               0-1.056000000E+010.0000000000E+00+
*       7.7300000000E+01               0
GRID*               3083               0-1.056000000E+010.0000000000E+00+
*       7.7290000000E+01               0
GRID*               3084               0-1.056000000E+010.0000000000E+00+
*       7.7280000000E+01               0
GRID*               3085               0-1.056000000E+010.0000000000E+00+
*       7.7270000000E+01               0
GRID*               3086               0-1.056000000E+010.0000000000E+00+
*       7.7260000000E+01               0
GRID*               3087               0-1.056000000E+010.0000000000E+00+
*       7.7250000000E+01               0
GRID*               3088               0-1.056000000E+010.0000000000E+00+
*       7.7240000000E+01               0
GRID*               3089               0-1.056000000E+010.0000000000E+00+
*       7.7230000000E+01               0
GRID*               3090               0-1.056000000E+010.0000000000E+00+
*       7.7220000000E+01               0
GRID*               3091               0-1.056000000E+010.0000000000E+00+
*       7.7210000000E+01               0
GRID*               3092               0-1.056000000E+010.0000000000E+00+
*       7.7200000000E+01               0
GRID*               3093               0-1.056000000E+010.0000000000E+00+
*       7.7190000000E+01               0
GRID*               3094               0-1.056000000E+010.0000000000E+00+
*       7.7180000000E+01               0
GRID*               3095               0-1.056000000E+010.0000000000E+00+
*       7.7170000000E+01               0
GRID*               3096               0-1.056000000E+010.0000000000E+00+
*       7.7160000000E+01               0
GRID*               3097               0-1.056000000E+010.0000000000E+00+
*       7.7150000000E+01               0
GRID*               3098               0-1.056000000E+010.0000000000E+00+
*       7.7140000000E+01               0
GRID*               3099               0-1.056000000E+010.0000000000E+00+
*       7.7130000000E+01               0
GRID*               3100               0-1.056000000E+010.0000000000E+00+
*       7.7120000000E+01               0
GRID*               3101               0-1.056000000E+010.0000000000E+00+
*       7.7110000000E+01               0
GRID*               3102               0-1.056000000E+010.0000000000E+00+
*       7.7100000000E+01               0
GRID*               3103               0-1.056000000E+010.0000000000E+00+
*       7.7090000000E+01               0
GRID*               3104               0-1.056000000E+010.0000000000E+00+
*       7.7080000000E+01               0
GRID*               3105               0-1.056000000E+010.0000000000E+00+
*       7.7070000000E+01               0
GRID*               3106               0-1.056000000E+010.0000000000E+00+
*       7.7060000000E+01               0
GRID*               3107               0-1.056000000E+010.0000000000E+00+
*       7.7050000000E+01               0
GRID*               3108               0-1.056000000E+010.0000000000E+00+
*       7.7040000000E+01               0
GRID*               3109               0-1.056000000E+010.0000000000E+00+
*       7.7030000000E+01               0
GRID*               3110               0-1.056000000E+010.0000000000E+00+
*       7.7020000000E+01               0
GRID*               3111               0-1.056000000E+010.0000000000E+00+
*       7.7010000000E+01               0
GRID*               3112               0-1.056000000E+010.0000000000E+00+
*       7.7000000000E+01               0
GRID*               3113               0-1.056000000E+010.0000000000E+00+
*       7.6990000000E+01               0
GRID*               3114               0-1.056000000E+010.0000000000E+00+
*       7.6980000000E+01               0
GRID*               3115               0-1.056000000E+010.0000000000E+00+
*       7.6970000000E+01               0
GRID*               3116               0-1.056000000E+010.0000000000E+00+
*       7.6960000000E+01               0
GRID*               3117               0-1.056000000E+010.0000000000E+00+
*       7.6950000000E+01               0
GRID*               3118               0-1.056000000E+010.0000000000E+00+
*       7.6940000000E+01               0
GRID*               3119               0-1.056000000E+010.0000000000E+00+
*       7.6930000000E+01               0
GRID*               3120               0-1.056000000E+010.0000000000E+00+
*       7.6920000000E+01               0
GRID*               3121               0-1.056000000E+010.0000000000E+00+
*       7.6910000000E+01               0
GRID*               3122               0-1.056000000E+010.0000000000E+00+
*       7.6900000000E+01               0
GRID*               3123               0-1.056000000E+010.0000000000E+00+
*       7.6890000000E+01               0
GRID*               3124               0-1.056000000E+010.0000000000E+00+
*       7.6880000000E+01               0
GRID*               3125               0-1.056000000E+010.0000000000E+00+
*       7.6870000000E+01               0
GRID*               3126               0-1.056000000E+010.0000000000E+00+
*       7.6860000000E+01               0
GRID*               3127               0-1.056000000E+010.0000000000E+00+
*       7.6850000000E+01               0
GRID*               3128               0-1.056000000E+010.0000000000E+00+
*       7.6840000000E+01               0
GRID*               3129               0-1.056000000E+010.0000000000E+00+
*       7.6830000000E+01               0
GRID*               3130               0-1.056000000E+010.0000000000E+00+
*       7.6820000000E+01               0
GRID*               3131               0-1.056000000E+010.0000000000E+00+
*       7.6810000000E+01               0
GRID*               3132               0-1.056000000E+010.0000000000E+00+
*       7.6800000000E+01               0
GRID*               3133               0-1.056000000E+010.0000000000E+00+
*       7.6790000000E+01               0
GRID*               3134               0-1.056000000E+010.0000000000E+00+
*       7.6780000000E+01               0
GRID*               3135               0-1.056000000E+010.0000000000E+00+
*       7.6770000000E+01               0
GRID*               3136               0-1.056000000E+010.0000000000E+00+
*       7.6760000000E+01               0
GRID*               3137               0-1.056000000E+010.0000000000E+00+
*       7.6750000000E+01               0
GRID*               3138               0-1.056000000E+010.0000000000E+00+
*       7.6740000000E+01               0
GRID*               3139               0-1.056000000E+010.0000000000E+00+
*       7.6730000000E+01               0
GRID*               3140               0-1.056000000E+010.0000000000E+00+
*       7.6720000000E+01               0
GRID*               3141               0-1.056000000E+010.0000000000E+00+
*       7.6710000000E+01               0
GRID*               3142               0-1.056000000E+010.0000000000E+00+
*       7.6700000000E+01               0
GRID*               3143               0-1.056000000E+010.0000000000E+00+
*       7.6690000000E+01               0
GRID*               3144               0-1.056000000E+010.0000000000E+00+
*       7.6680000000E+01               0
GRID*               3145               0-1.056000000E+010.0000000000E+00+
*       7.6670000000E+01               0
GRID*               3146               0-1.056000000E+010.0000000000E+00+
*       7.6660000000E+01               0
GRID*               3147               0-1.056000000E+010.0000000000E+00+
*       7.6650000000E+01               0
GRID*               3148               0-1.056000000E+010.0000000000E+00+
*       7.6640000000E+01               0
GRID*               3149               0-1.056000000E+010.0000000000E+00+
*       7.6630000000E+01               0
GRID*               3150               0-1.056000000E+010.0000000000E+00+
*       7.6620000000E+01               0
GRID*               3151               0-1.056000000E+010.0000000000E+00+
*       7.6610000000E+01               0
GRID*               3152               0-1.056000000E+010.0000000000E+00+
*       7.6600000000E+01               0
GRID*               3153               0-1.056000000E+010.0000000000E+00+
*       7.6590000000E+01               0
GRID*               3154               0-1.056000000E+010.0000000000E+00+
*       7.6580000000E+01               0
GRID*               3155               0-1.056000000E+010.0000000000E+00+
*       7.6570000000E+01               0
GRID*               3156               0-1.056000000E+010.0000000000E+00+
*       7.6560000000E+01               0
GRID*               3157               0-1.056000000E+010.0000000000E+00+
*       7.6550000000E+01               0
GRID*               3158               0-1.056000000E+010.0000000000E+00+
*       7.6540000000E+01               0
GRID*               3159               0-1.056000000E+010.0000000000E+00+
*       7.6530000000E+01               0
GRID*               3160               0-1.056000000E+010.0000000000E+00+
*       7.6520000000E+01               0
GRID*               3161               0-1.056000000E+010.0000000000E+00+
*       7.6510000000E+01               0
GRID*               3162               0-1.056000000E+010.0000000000E+00+
*       7.6500000000E+01               0
GRID*               3163               0-1.056000000E+010.0000000000E+00+
*       7.6490000000E+01               0
GRID*               3164               0-1.056000000E+010.0000000000E+00+
*       7.6480000000E+01               0
GRID*               3165               0-1.056000000E+010.0000000000E+00+
*       7.6470000000E+01               0
GRID*               3166               0-1.056000000E+010.0000000000E+00+
*       7.6460000000E+01               0
GRID*               3167               0-1.056000000E+010.0000000000E+00+
*       7.6450000000E+01               0
GRID*               3168               0-1.056000000E+010.0000000000E+00+
*       7.6440000000E+01               0
GRID*               3169               0-1.056000000E+010.0000000000E+00+
*       7.6430000000E+01               0
GRID*               3170               0-1.056000000E+010.0000000000E+00+
*       7.6420000000E+01               0
GRID*               3171               0-1.056000000E+010.0000000000E+00+
*       7.6410000000E+01               0
GRID*               3172               0-1.056000000E+010.0000000000E+00+
*       7.6400000000E+01               0
GRID*               3173               0-1.056000000E+010.0000000000E+00+
*       7.6390000000E+01               0
GRID*               3174               0-1.056000000E+010.0000000000E+00+
*       7.6380000000E+01               0
GRID*               3175               0-1.056000000E+010.0000000000E+00+
*       7.6370000000E+01               0
GRID*               3176               0-1.056000000E+010.0000000000E+00+
*       7.6360000000E+01               0
GRID*               3177               0-1.056000000E+010.0000000000E+00+
*       7.6350000000E+01               0
GRID*               3178               0-1.056000000E+010.0000000000E+00+
*       7.6340000000E+01               0
GRID*               3179               0-1.056000000E+010.0000000000E+00+
*       7.6330000000E+01               0
GRID*               3180               0-1.056000000E+010.0000000000E+00+
*       7.6320000000E+01               0
GRID*               3181               0-1.056000000E+010.0000000000E+00+
*       7.6310000000E+01               0
GRID*               3182               0-1.056000000E+010.0000000000E+00+
*       7.6300000000E+01               0
GRID*               3183               0-1.056000000E+010.0000000000E+00+
*       7.6290000000E+01               0
GRID*               3184               0-1.056000000E+010.0000000000E+00+
*       7.6280000000E+01               0
GRID*               3185               0-1.056000000E+010.0000000000E+00+
*       7.6270000000E+01               0
GRID*               3186               0-1.056000000E+010.0000000000E+00+
*       7.6260000000E+01               0
GRID*               3187               0-1.056000000E+010.0000000000E+00+
*       7.6250000000E+01               0
GRID*               3188               0-1.056000000E+010.0000000000E+00+
*       7.6240000000E+01               0
GRID*               3189               0-1.056000000E+010.0000000000E+00+
*       7.6230000000E+01               0
GRID*               3190               0-1.056000000E+010.0000000000E+00+
*       7.6220000000E+01               0
GRID*               3191               0-1.056000000E+010.0000000000E+00+
*       7.6210000000E+01               0
GRID*               3192               0-1.056000000E+010.0000000000E+00+
*       7.6200000000E+01               0
GRID*               3193               0-1.056000000E+010.0000000000E+00+
*       7.6190000000E+01               0
GRID*               3194               0-1.056000000E+010.0000000000E+00+
*       7.6180000000E+01               0
GRID*               3195               0-1.056000000E+010.0000000000E+00+
*       7.6170000000E+01               0
GRID*               3196               0-1.056000000E+010.0000000000E+00+
*       7.6160000000E+01               0
GRID*               3197               0-1.056000000E+010.0000000000E+00+
*       7.6150000000E+01               0
GRID*               3198               0-1.056000000E+010.0000000000E+00+
*       7.6140000000E+01               0
GRID*               3199               0-1.056000000E+010.0000000000E+00+
*       7.6130000000E+01               0
GRID*               3200               0-1.056000000E+010.0000000000E+00+
*       7.6120000000E+01               0
GRID*               3201               0-1.056000000E+010.0000000000E+00+
*       7.6110000000E+01               0
GRID*               3202               0-1.056000000E+010.0000000000E+00+
*       7.6100000000E+01               0
GRID*               3203               0-1.056000000E+010.0000000000E+00+
*       7.6090000000E+01               0
GRID*               3204               0-1.056000000E+010.0000000000E+00+
*       7.6080000000E+01               0
GRID*               3205               0-1.056000000E+010.0000000000E+00+
*       7.6070000000E+01               0
GRID*               3206               0-1.056000000E+010.0000000000E+00+
*       7.6060000000E+01               0
GRID*               3207               0-1.056000000E+010.0000000000E+00+
*       7.6050000000E+01               0
GRID*               3208               0-1.056000000E+010.0000000000E+00+
*       7.6040000000E+01               0
GRID*               3209               0-1.056000000E+010.0000000000E+00+
*       7.6030000000E+01               0
GRID*               3210               0-1.056000000E+010.0000000000E+00+
*       7.6020000000E+01               0
GRID*               3211               0-1.056000000E+010.0000000000E+00+
*       7.6010000000E+01               0
GRID*               3212               0-1.056000000E+010.0000000000E+00+
*       7.6000000000E+01               0
GRID*               3213               0-1.056000000E+010.0000000000E+00+
*       7.5990000000E+01               0
GRID*               3214               0-1.056000000E+010.0000000000E+00+
*       7.5980000000E+01               0
GRID*               3215               0-1.056000000E+010.0000000000E+00+
*       7.5970000000E+01               0
GRID*               3216               0-1.056000000E+010.0000000000E+00+
*       7.5960000000E+01               0
GRID*               3217               0-1.056000000E+010.0000000000E+00+
*       7.5950000000E+01               0
GRID*               3218               0-1.056000000E+010.0000000000E+00+
*       7.5940000000E+01               0
GRID*               3219               0-1.056000000E+010.0000000000E+00+
*       7.5930000000E+01               0
GRID*               3220               0-1.056000000E+010.0000000000E+00+
*       7.5920000000E+01               0
GRID*               3221               0-1.056000000E+010.0000000000E+00+
*       7.5910000000E+01               0
GRID*               3222               0-1.056000000E+010.0000000000E+00+
*       7.5900000000E+01               0
GRID*               3223               0-1.056000000E+010.0000000000E+00+
*       7.5890000000E+01               0
GRID*               3224               0-1.056000000E+010.0000000000E+00+
*       7.5880000000E+01               0
GRID*               3225               0-1.056000000E+010.0000000000E+00+
*       7.5870000000E+01               0
GRID*               3226               0-1.056000000E+010.0000000000E+00+
*       7.5860000000E+01               0
GRID*               3227               0-1.056000000E+010.0000000000E+00+
*       7.5850000000E+01               0
GRID*               3228               0-1.056000000E+010.0000000000E+00+
*       7.5840000000E+01               0
GRID*               3229               0-1.056000000E+010.0000000000E+00+
*       7.5830000000E+01               0
GRID*               3230               0-1.056000000E+010.0000000000E+00+
*       7.5820000000E+01               0
GRID*               3231               0-1.056000000E+010.0000000000E+00+
*       7.5810000000E+01               0
GRID*               3232               0-1.056000000E+010.0000000000E+00+
*       7.5800000000E+01               0
GRID*               3233               0-1.056000000E+010.0000000000E+00+
*       7.5790000000E+01               0
GRID*               3234               0-1.056000000E+010.0000000000E+00+
*       7.5780000000E+01               0
GRID*               3235               0-1.056000000E+010.0000000000E+00+
*       7.5770000000E+01               0
GRID*               3236               0-1.056000000E+010.0000000000E+00+
*       7.5760000000E+01               0
GRID*               3237               0-1.056000000E+010.0000000000E+00+
*       7.5750000000E+01               0
GRID*               3238               0-1.056000000E+010.0000000000E+00+
*       7.5740000000E+01               0
GRID*               3239               0-1.056000000E+010.0000000000E+00+
*       7.5730000000E+01               0
GRID*               3240               0-1.056000000E+010.0000000000E+00+
*       7.5720000000E+01               0
GRID*               3241               0-1.056000000E+010.0000000000E+00+
*       7.5710000000E+01               0
GRID*               3242               0-1.056000000E+010.0000000000E+00+
*       7.5700000000E+01               0
GRID*               3243               0-1.056000000E+010.0000000000E+00+
*       7.5690000000E+01               0
GRID*               3244               0-1.056000000E+010.0000000000E+00+
*       7.5680000000E+01               0
GRID*               3245               0-1.056000000E+010.0000000000E+00+
*       7.5670000000E+01               0
GRID*               3246               0-1.056000000E+010.0000000000E+00+
*       7.5660000000E+01               0
GRID*               3247               0-1.056000000E+010.0000000000E+00+
*       7.5650000000E+01               0
GRID*               3248               0-1.056000000E+010.0000000000E+00+
*       7.5640000000E+01               0
GRID*               3249               0-1.056000000E+010.0000000000E+00+
*       7.5630000000E+01               0
GRID*               3250               0-1.056000000E+010.0000000000E+00+
*       7.5620000000E+01               0
GRID*               3251               0-1.056000000E+010.0000000000E+00+
*       7.5610000000E+01               0
GRID*               3252               0-1.056000000E+010.0000000000E+00+
*       7.5600000000E+01               0
GRID*               3253               0-1.056000000E+010.0000000000E+00+
*       7.5590000000E+01               0
GRID*               3254               0-1.056000000E+010.0000000000E+00+
*       7.5580000000E+01               0
GRID*               3255               0-1.056000000E+010.0000000000E+00+
*       7.5570000000E+01               0
GRID*               3256               0-1.056000000E+010.0000000000E+00+
*       7.5560000000E+01               0
GRID*               3257               0-1.056000000E+010.0000000000E+00+
*       7.5550000000E+01               0
GRID*               3258               0-1.056000000E+010.0000000000E+00+
*       7.5540000000E+01               0
GRID*               3259               0-1.056000000E+010.0000000000E+00+
*       7.5530000000E+01               0
GRID*               3260               0-1.056000000E+010.0000000000E+00+
*       7.5520000000E+01               0
GRID*               3261               0-1.056000000E+010.0000000000E+00+
*       7.5510000000E+01               0
GRID*               3262               0-1.056000000E+010.0000000000E+00+
*       7.5500000000E+01               0
GRID*               3263               0-1.056000000E+010.0000000000E+00+
*       7.5490000000E+01               0
GRID*               3264               0-1.056000000E+010.0000000000E+00+
*       7.5480000000E+01               0
GRID*               3265               0-1.056000000E+010.0000000000E+00+
*       7.5470000000E+01               0
GRID*               3266               0-1.056000000E+010.0000000000E+00+
*       7.5460000000E+01               0
GRID*               3267               0-1.056000000E+010.0000000000E+00+
*       7.5450000000E+01               0
GRID*               3268               0-1.056000000E+010.0000000000E+00+
*       7.5440000000E+01               0
GRID*               3269               0-1.056000000E+010.0000000000E+00+
*       7.5430000000E+01               0
GRID*               3270               0-1.056000000E+010.0000000000E+00+
*       7.5420000000E+01               0
GRID*               3271               0-1.056000000E+010.0000000000E+00+
*       7.5410000000E+01               0
GRID*               3272               0-1.056000000E+010.0000000000E+00+
*       7.5400000000E+01               0
GRID*               3273               0-1.056000000E+010.0000000000E+00+
*       7.5390000000E+01               0
GRID*               3274               0-1.056000000E+010.0000000000E+00+
*       7.5380000000E+01               0
GRID*               3275               0-1.056000000E+010.0000000000E+00+
*       7.5370000000E+01               0
GRID*               3276               0-1.056000000E+010.0000000000E+00+
*       7.5360000000E+01               0
GRID*               3277               0-1.056000000E+010.0000000000E+00+
*       7.5350000000E+01               0
GRID*               3278               0-1.056000000E+010.0000000000E+00+
*       7.5340000000E+01               0
GRID*               3279               0-1.056000000E+010.0000000000E+00+
*       7.5330000000E+01               0
GRID*               3280               0-1.056000000E+010.0000000000E+00+
*       7.5320000000E+01               0
GRID*               3281               0-1.056000000E+010.0000000000E+00+
*       7.5310000000E+01               0
GRID*               3282               0-1.056000000E+010.0000000000E+00+
*       7.5300000000E+01               0
GRID*               3283               0-1.056000000E+010.0000000000E+00+
*       7.5290000000E+01               0
GRID*               3284               0-1.056000000E+010.0000000000E+00+
*       7.5280000000E+01               0
GRID*               3285               0-1.056000000E+010.0000000000E+00+
*       7.5270000000E+01               0
GRID*               3286               0-1.056000000E+010.0000000000E+00+
*       7.5260000000E+01               0
GRID*               3287               0-1.056000000E+010.0000000000E+00+
*       7.5250000000E+01               0
GRID*               3288               0-1.056000000E+010.0000000000E+00+
*       7.5240000000E+01               0
GRID*               3289               0-1.056000000E+010.0000000000E+00+
*       7.5230000000E+01               0
GRID*               3290               0-1.056000000E+010.0000000000E+00+
*       7.5220000000E+01               0
GRID*               3291               0-1.056000000E+010.0000000000E+00+
*       7.5210000000E+01               0
GRID*               3292               0-1.056000000E+010.0000000000E+00+
*       7.5200000000E+01               0
GRID*               3293               0-1.056000000E+010.0000000000E+00+
*       7.5190000000E+01               0
GRID*               3294               0-1.056000000E+010.0000000000E+00+
*       7.5180000000E+01               0
GRID*               3295               0-1.056000000E+010.0000000000E+00+
*       7.5170000000E+01               0
GRID*               3296               0-1.056000000E+010.0000000000E+00+
*       7.5160000000E+01               0
GRID*               3297               0-1.056000000E+010.0000000000E+00+
*       7.5150000000E+01               0
GRID*               3298               0-1.056000000E+010.0000000000E+00+
*       7.5140000000E+01               0
GRID*               3299               0-1.056000000E+010.0000000000E+00+
*       7.5130000000E+01               0
GRID*               3300               0-1.056000000E+010.0000000000E+00+
*       7.5120000000E+01               0
GRID*               3301               0-1.056000000E+010.0000000000E+00+
*       7.5110000000E+01               0
GRID*               3302               0-1.056000000E+010.0000000000E+00+
*       7.5100000000E+01               0
GRID*               3303               0-1.056000000E+010.0000000000E+00+
*       7.5090000000E+01               0
GRID*               3304               0-1.056000000E+010.0000000000E+00+
*       7.5080000000E+01               0
GRID*               3305               0-1.056000000E+010.0000000000E+00+
*       7.5070000000E+01               0
GRID*               3306               0-1.056000000E+010.0000000000E+00+
*       7.5060000000E+01               0
GRID*               3307               0-1.056000000E+010.0000000000E+00+
*       7.5050000000E+01               0
GRID*               3308               0-1.056000000E+010.0000000000E+00+
*       7.5040000000E+01               0
GRID*               3309               0-1.056000000E+010.0000000000E+00+
*       7.5030000000E+01               0
GRID*               3310               0-1.056000000E+010.0000000000E+00+
*       7.5020000000E+01               0
GRID*               3311               0-1.056000000E+010.0000000000E+00+
*       7.5010000000E+01               0
GRID*               3312               0-1.056000000E+010.0000000000E+00+
*       7.5000000000E+01               0
GRID*               3313               0-1.056000000E+010.0000000000E+00+
*       7.4990000000E+01               0
GRID*               3314               0-1.056000000E+010.0000000000E+00+
*       7.4980000000E+01               0
GRID*               3315               0-1.056000000E+010.0000000000E+00+
*       7.4970000000E+01               0
GRID*               3316               0-1.056000000E+010.0000000000E+00+
*       7.4960000000E+01               0
GRID*               3317               0-1.056000000E+010.0000000000E+00+
*       7.4950000000E+01               0
GRID*               3318               0-1.056000000E+010.0000000000E+00+
*       7.4940000000E+01               0
GRID*               3319               0-1.056000000E+010.0000000000E+00+
*       7.4930000000E+01               0
GRID*               3320               0-1.056000000E+010.0000000000E+00+
*       7.4920000000E+01               0
GRID*               3321               0-1.056000000E+010.0000000000E+00+
*       7.4910000000E+01               0
GRID*               3322               0-1.056000000E+010.0000000000E+00+
*       7.4900000000E+01               0
GRID*               3323               0-1.056000000E+010.0000000000E+00+
*       7.4890000000E+01               0
GRID*               3324               0-1.056000000E+010.0000000000E+00+
*       7.4880000000E+01               0
GRID*               3325               0-1.056000000E+010.0000000000E+00+
*       7.4870000000E+01               0
GRID*               3326               0-1.056000000E+010.0000000000E+00+
*       7.4860000000E+01               0
GRID*               3327               0-1.056000000E+010.0000000000E+00+
*       7.4850000000E+01               0
GRID*               3328               0-1.056000000E+010.0000000000E+00+
*       7.4840000000E+01               0
GRID*               3329               0-1.056000000E+010.0000000000E+00+
*       7.4830000000E+01               0
GRID*               3330               0-1.056000000E+010.0000000000E+00+
*       7.4820000000E+01               0
GRID*               3331               0-1.056000000E+010.0000000000E+00+
*       7.4810000000E+01               0
GRID*               3332               0-1.056000000E+010.0000000000E+00+
*       7.4800000000E+01               0
GRID*               3333               0-1.056000000E+010.0000000000E+00+
*       7.4790000000E+01               0
GRID*               3334               0-1.056000000E+010.0000000000E+00+
*       7.4780000000E+01               0
GRID*               3335               0-1.056000000E+010.0000000000E+00+
*       7.4770000000E+01               0
GRID*               3336               0-1.056000000E+010.0000000000E+00+
*       7.4760000000E+01               0
GRID*               3337               0-1.056000000E+010.0000000000E+00+
*       7.4750000000E+01               0
GRID*               3338               0-1.056000000E+010.0000000000E+00+
*       7.4740000000E+01               0
GRID*               3339               0-1.056000000E+010.0000000000E+00+
*       7.4730000000E+01               0
GRID*               3340               0-1.056000000E+010.0000000000E+00+
*       7.4720000000E+01               0
GRID*               3341               0-1.056000000E+010.0000000000E+00+
*       7.4710000000E+01               0
GRID*               3342               0-1.056000000E+010.0000000000E+00+
*       7.4700000000E+01               0
GRID*               3343               0-1.056000000E+010.0000000000E+00+
*       7.4690000000E+01               0
GRID*               3344               0-1.056000000E+010.0000000000E+00+
*       7.4680000000E+01               0
GRID*               3345               0-1.056000000E+010.0000000000E+00+
*       7.4670000000E+01               0
GRID*               3346               0-1.056000000E+010.0000000000E+00+
*       7.4660000000E+01               0
GRID*               3347               0-1.056000000E+010.0000000000E+00+
*       7.4650000000E+01               0
GRID*               3348               0-1.056000000E+010.0000000000E+00+
*       7.4640000000E+01               0
GRID*               3349               0-1.056000000E+010.0000000000E+00+
*       7.4630000000E+01               0
GRID*               3350               0-1.056000000E+010.0000000000E+00+
*       7.4620000000E+01               0
GRID*               3351               0-1.056000000E+010.0000000000E+00+
*       7.4610000000E+01               0
GRID*               3352               0-1.056000000E+010.0000000000E+00+
*       7.4600000000E+01               0
GRID*               3353               0-1.056000000E+010.0000000000E+00+
*       7.4590000000E+01               0
GRID*               3354               0-1.056000000E+010.0000000000E+00+
*       7.4580000000E+01               0
GRID*               3355               0-1.056000000E+010.0000000000E+00+
*       7.4570000000E+01               0
GRID*               3356               0-1.056000000E+010.0000000000E+00+
*       7.4560000000E+01               0
GRID*               3357               0-1.056000000E+010.0000000000E+00+
*       7.4550000000E+01               0
GRID*               3358               0-1.056000000E+010.0000000000E+00+
*       7.4540000000E+01               0
GRID*               3359               0-1.056000000E+010.0000000000E+00+
*       7.4530000000E+01               0
GRID*               3360               0-1.056000000E+010.0000000000E+00+
*       7.4520000000E+01               0
GRID*               3361               0-1.056000000E+010.0000000000E+00+
*       7.4510000000E+01               0
GRID*               3362               0-1.056000000E+010.0000000000E+00+
*       7.4500000000E+01               0
GRID*               3363               0-1.056000000E+010.0000000000E+00+
*       7.4490000000E+01               0
GRID*               3364               0-1.056000000E+010.0000000000E+00+
*       7.4480000000E+01               0
GRID*               3365               0-1.056000000E+010.0000000000E+00+
*       7.4470000000E+01               0
GRID*               3366               0-1.056000000E+010.0000000000E+00+
*       7.4460000000E+01               0
GRID*               3367               0-1.056000000E+010.0000000000E+00+
*       7.4450000000E+01               0
GRID*               3368               0-1.056000000E+010.0000000000E+00+
*       7.4440000000E+01               0
GRID*               3369               0-1.056000000E+010.0000000000E+00+
*       7.4430000000E+01               0
GRID*               3370               0-1.056000000E+010.0000000000E+00+
*       7.4420000000E+01               0
GRID*               3371               0-1.056000000E+010.0000000000E+00+
*       7.4410000000E+01               0
GRID*               3372               0-1.056000000E+010.0000000000E+00+
*       7.4400000000E+01               0
GRID*               3373               0-1.056000000E+010.0000000000E+00+
*       7.4390000000E+01               0
GRID*               3374               0-1.056000000E+010.0000000000E+00+
*       7.4380000000E+01               0
GRID*               3375               0-1.056000000E+010.0000000000E+00+
*       7.4370000000E+01               0
GRID*               3376               0-1.056000000E+010.0000000000E+00+
*       7.4360000000E+01               0
GRID*               3377               0-1.056000000E+010.0000000000E+00+
*       7.4350000000E+01               0
GRID*               3378               0-1.056000000E+010.0000000000E+00+
*       7.4340000000E+01               0
GRID*               3379               0-1.056000000E+010.0000000000E+00+
*       7.4330000000E+01               0
GRID*               3380               0-1.056000000E+010.0000000000E+00+
*       7.4320000000E+01               0
GRID*               3381               0-1.056000000E+010.0000000000E+00+
*       7.4310000000E+01               0
GRID*               3382               0-1.056000000E+010.0000000000E+00+
*       7.4300000000E+01               0
GRID*               3383               0-1.056000000E+010.0000000000E+00+
*       7.4290000000E+01               0
GRID*               3384               0-1.056000000E+010.0000000000E+00+
*       7.4280000000E+01               0
GRID*               3385               0-1.056000000E+010.0000000000E+00+
*       7.4270000000E+01               0
GRID*               3386               0-1.056000000E+010.0000000000E+00+
*       7.4260000000E+01               0
GRID*               3387               0-1.056000000E+010.0000000000E+00+
*       7.4250000000E+01               0
GRID*               3388               0-1.056000000E+010.0000000000E+00+
*       7.4240000000E+01               0
GRID*               3389               0-1.056000000E+010.0000000000E+00+
*       7.4230000000E+01               0
GRID*               3390               0-1.056000000E+010.0000000000E+00+
*       7.4220000000E+01               0
GRID*               3391               0-1.056000000E+010.0000000000E+00+
*       7.4210000000E+01               0
GRID*               3392               0-1.056000000E+010.0000000000E+00+
*       7.4200000000E+01               0
GRID*               3393               0-1.056000000E+010.0000000000E+00+
*       7.4190000000E+01               0
GRID*               3394               0-1.056000000E+010.0000000000E+00+
*       7.4180000000E+01               0
GRID*               3395               0-1.056000000E+010.0000000000E+00+
*       7.4170000000E+01               0
GRID*               3396               0-1.056000000E+010.0000000000E+00+
*       7.4160000000E+01               0
GRID*               3397               0-1.056000000E+010.0000000000E+00+
*       7.4150000000E+01               0
GRID*               3398               0-1.056000000E+010.0000000000E+00+
*       7.4140000000E+01               0
GRID*               3399               0-1.056000000E+010.0000000000E+00+
*       7.4130000000E+01               0
GRID*               3400               0-1.056000000E+010.0000000000E+00+
*       7.4120000000E+01               0
GRID*               3401               0-1.056000000E+010.0000000000E+00+
*       7.4110000000E+01               0
GRID*               3402               0-1.056000000E+010.0000000000E+00+
*       7.4100000000E+01               0
GRID*               3403               0-1.056000000E+010.0000000000E+00+
*       7.4090000000E+01               0
GRID*               3404               0-1.056000000E+010.0000000000E+00+
*       7.4080000000E+01               0
GRID*               3405               0-1.056000000E+010.0000000000E+00+
*       7.4070000000E+01               0
GRID*               3406               0-1.056000000E+010.0000000000E+00+
*       7.4060000000E+01               0
GRID*               3407               0-1.056000000E+010.0000000000E+00+
*       7.4050000000E+01               0
GRID*               3408               0-1.056000000E+010.0000000000E+00+
*       7.4040000000E+01               0
GRID*               3409               0-1.056000000E+010.0000000000E+00+
*       7.4030000000E+01               0
GRID*               3410               0-1.056000000E+010.0000000000E+00+
*       7.4020000000E+01               0
GRID*               3411               0-1.056000000E+010.0000000000E+00+
*       7.4010000000E+01               0
GRID*               3412               0-1.056000000E+010.0000000000E+00+
*       7.4000000000E+01               0
GRID*               3413               0-1.056000000E+010.0000000000E+00+
*       7.3990000000E+01               0
GRID*               3414               0-1.056000000E+010.0000000000E+00+
*       7.3980000000E+01               0
GRID*               3415               0-1.056000000E+010.0000000000E+00+
*       7.3970000000E+01               0
GRID*               3416               0-1.056000000E+010.0000000000E+00+
*       7.3960000000E+01               0
GRID*               3417               0-1.056000000E+010.0000000000E+00+
*       7.3950000000E+01               0
GRID*               3418               0-1.056000000E+010.0000000000E+00+
*       7.3940000000E+01               0
GRID*               3419               0-1.056000000E+010.0000000000E+00+
*       7.3930000000E+01               0
GRID*               3420               0-1.056000000E+010.0000000000E+00+
*       7.3920000000E+01               0
GRID*               3421               0-1.056000000E+010.0000000000E+00+
*       7.3910000000E+01               0
GRID*               3422               0-1.056000000E+010.0000000000E+00+
*       7.3900000000E+01               0
GRID*               3423               0-1.056000000E+010.0000000000E+00+
*       7.3890000000E+01               0
GRID*               3424               0-1.056000000E+010.0000000000E+00+
*       7.3880000000E+01               0
GRID*               3425               0-1.056000000E+010.0000000000E+00+
*       7.3870000000E+01               0
GRID*               3426               0-1.056000000E+010.0000000000E+00+
*       7.3860000000E+01               0
GRID*               3427               0-1.056000000E+010.0000000000E+00+
*       7.3850000000E+01               0
GRID*               3428               0-1.056000000E+010.0000000000E+00+
*       7.3840000000E+01               0
GRID*               3429               0-1.056000000E+010.0000000000E+00+
*       7.3830000000E+01               0
GRID*               3430               0-1.056000000E+010.0000000000E+00+
*       7.3820000000E+01               0
GRID*               3431               0-1.056000000E+010.0000000000E+00+
*       7.3810000000E+01               0
GRID*               3432               0-1.056000000E+010.0000000000E+00+
*       7.3800000000E+01               0
GRID*               3433               0-1.056000000E+010.0000000000E+00+
*       7.3790000000E+01               0
GRID*               3434               0-1.056000000E+010.0000000000E+00+
*       7.3780000000E+01               0
GRID*               3435               0-1.056000000E+010.0000000000E+00+
*       7.3770000000E+01               0
GRID*               3436               0-1.056000000E+010.0000000000E+00+
*       7.3760000000E+01               0
GRID*               3437               0-1.056000000E+010.0000000000E+00+
*       7.3750000000E+01               0
GRID*               3438               0-1.056000000E+010.0000000000E+00+
*       7.3740000000E+01               0
GRID*               3439               0-1.056000000E+010.0000000000E+00+
*       7.3730000000E+01               0
GRID*               3440               0-1.056000000E+010.0000000000E+00+
*       7.3720000000E+01               0
GRID*               3441               0-1.056000000E+010.0000000000E+00+
*       7.3710000000E+01               0
GRID*               3442               0-1.056000000E+010.0000000000E+00+
*       7.3700000000E+01               0
GRID*               3443               0-1.056000000E+010.0000000000E+00+
*       7.3690000000E+01               0
GRID*               3444               0-1.056000000E+010.0000000000E+00+
*       7.3680000000E+01               0
GRID*               3445               0-1.056000000E+010.0000000000E+00+
*       7.3670000000E+01               0
GRID*               3446               0-1.056000000E+010.0000000000E+00+
*       7.3660000000E+01               0
GRID*               3447               0-1.056000000E+010.0000000000E+00+
*       7.3650000000E+01               0
GRID*               3448               0-1.056000000E+010.0000000000E+00+
*       7.3640000000E+01               0
GRID*               3449               0-1.056000000E+010.0000000000E+00+
*       7.3630000000E+01               0
GRID*               3450               0-1.056000000E+010.0000000000E+00+
*       7.3620000000E+01               0
GRID*               3451               0-1.056000000E+010.0000000000E+00+
*       7.3610000000E+01               0
GRID*               3452               0-1.056000000E+010.0000000000E+00+
*       7.3600000000E+01               0
GRID*               3453               0-1.056000000E+010.0000000000E+00+
*       7.3590000000E+01               0
GRID*               3454               0-1.056000000E+010.0000000000E+00+
*       7.3580000000E+01               0
GRID*               3455               0-1.056000000E+010.0000000000E+00+
*       7.3570000000E+01               0
GRID*               3456               0-1.056000000E+010.0000000000E+00+
*       7.3560000000E+01               0
GRID*               3457               0-1.056000000E+010.0000000000E+00+
*       7.3550000000E+01               0
GRID*               3458               0-1.056000000E+010.0000000000E+00+
*       7.3540000000E+01               0
GRID*               3459               0-1.056000000E+010.0000000000E+00+
*       7.3530000000E+01               0
GRID*               3460               0-1.056000000E+010.0000000000E+00+
*       7.3520000000E+01               0
GRID*               3461               0-1.056000000E+010.0000000000E+00+
*       7.3510000000E+01               0
GRID*               3462               0-1.056000000E+010.0000000000E+00+
*       7.3500000000E+01               0
GRID*               3463               0-1.056000000E+010.0000000000E+00+
*       7.3490000000E+01               0
GRID*               3464               0-1.056000000E+010.0000000000E+00+
*       7.3480000000E+01               0
GRID*               3465               0-1.056000000E+010.0000000000E+00+
*       7.3470000000E+01               0
GRID*               3466               0-1.056000000E+010.0000000000E+00+
*       7.3460000000E+01               0
GRID*               3467               0-1.056000000E+010.0000000000E+00+
*       7.3450000000E+01               0
GRID*               3468               0-1.056000000E+010.0000000000E+00+
*       7.3440000000E+01               0
GRID*               3469               0-1.056000000E+010.0000000000E+00+
*       7.3430000000E+01               0
GRID*               3470               0-1.056000000E+010.0000000000E+00+
*       7.3420000000E+01               0
GRID*               3471               0-1.056000000E+010.0000000000E+00+
*       7.3410000000E+01               0
GRID*               3472               0-1.056000000E+010.0000000000E+00+
*       7.3400000000E+01               0
GRID*               3473               0-1.056000000E+010.0000000000E+00+
*       7.3390000000E+01               0
GRID*               3474               0-1.056000000E+010.0000000000E+00+
*       7.3380000000E+01               0
GRID*               3475               0-1.056000000E+010.0000000000E+00+
*       7.3370000000E+01               0
GRID*               3476               0-1.056000000E+010.0000000000E+00+
*       7.3360000000E+01               0
GRID*               3477               0-1.056000000E+010.0000000000E+00+
*       7.3350000000E+01               0
GRID*               3478               0-1.056000000E+010.0000000000E+00+
*       7.3340000000E+01               0
GRID*               3479               0-1.056000000E+010.0000000000E+00+
*       7.3330000000E+01               0
GRID*               3480               0-1.056000000E+010.0000000000E+00+
*       7.3320000000E+01               0
GRID*               3481               0-1.056000000E+010.0000000000E+00+
*       7.3310000000E+01               0
GRID*               3482               0-1.056000000E+010.0000000000E+00+
*       7.3300000000E+01               0
GRID*               3483               0-1.056000000E+010.0000000000E+00+
*       7.3290000000E+01               0
GRID*               3484               0-1.056000000E+010.0000000000E+00+
*       7.3280000000E+01               0
GRID*               3485               0-1.056000000E+010.0000000000E+00+
*       7.3270000000E+01               0
GRID*               3486               0-1.056000000E+010.0000000000E+00+
*       7.3260000000E+01               0
GRID*               3487               0-1.056000000E+010.0000000000E+00+
*       7.3250000000E+01               0
GRID*               3488               0-1.056000000E+010.0000000000E+00+
*       7.3240000000E+01               0
GRID*               3489               0-1.056000000E+010.0000000000E+00+
*       7.3230000000E+01               0
GRID*               3490               0-1.056000000E+010.0000000000E+00+
*       7.3220000000E+01               0
GRID*               3491               0-1.056000000E+010.0000000000E+00+
*       7.3210000000E+01               0
GRID*               3492               0-1.056000000E+010.0000000000E+00+
*       7.3200000000E+01               0
GRID*               3493               0-1.056000000E+010.0000000000E+00+
*       7.3190000000E+01               0
GRID*               3494               0-1.056000000E+010.0000000000E+00+
*       7.3180000000E+01               0
GRID*               3495               0-1.056000000E+010.0000000000E+00+
*       7.3170000000E+01               0
GRID*               3496               0-1.056000000E+010.0000000000E+00+
*       7.3160000000E+01               0
GRID*               3497               0-1.056000000E+010.0000000000E+00+
*       7.3150000000E+01               0
GRID*               3498               0-1.056000000E+010.0000000000E+00+
*       7.3140000000E+01               0
GRID*               3499               0-1.056000000E+010.0000000000E+00+
*       7.3130000000E+01               0
GRID*               3500               0-1.056000000E+010.0000000000E+00+
*       7.3120000000E+01               0
GRID*               3501               0-1.056000000E+010.0000000000E+00+
*       7.3110000000E+01               0
GRID*               3502               0-1.056000000E+010.0000000000E+00+
*       7.3100000000E+01               0
GRID*               3503               0-1.056000000E+010.0000000000E+00+
*       7.3090000000E+01               0
GRID*               3504               0-1.056000000E+010.0000000000E+00+
*       7.3080000000E+01               0
GRID*               3505               0-1.056000000E+010.0000000000E+00+
*       7.3070000000E+01               0
GRID*               3506               0-1.056000000E+010.0000000000E+00+
*       7.3060000000E+01               0
GRID*               3507               0-1.056000000E+010.0000000000E+00+
*       7.3050000000E+01               0
GRID*               3508               0-1.056000000E+010.0000000000E+00+
*       7.3040000000E+01               0
GRID*               3509               0-1.056000000E+010.0000000000E+00+
*       7.3030000000E+01               0
GRID*               3510               0-1.056000000E+010.0000000000E+00+
*       7.3020000000E+01               0
GRID*               3511               0-1.056000000E+010.0000000000E+00+
*       7.3010000000E+01               0
GRID*               3512               0-1.056000000E+010.0000000000E+00+
*       7.3000000000E+01               0
GRID*               3513               0-1.056000000E+010.0000000000E+00+
*       7.2990000000E+01               0
GRID*               3514               0-1.056000000E+010.0000000000E+00+
*       7.2980000000E+01               0
GRID*               3515               0-1.056000000E+010.0000000000E+00+
*       7.2970000000E+01               0
GRID*               3516               0-1.056000000E+010.0000000000E+00+
*       7.2960000000E+01               0
GRID*               3517               0-1.056000000E+010.0000000000E+00+
*       7.2950000000E+01               0
GRID*               3518               0-1.056000000E+010.0000000000E+00+
*       7.2940000000E+01               0
GRID*               3519               0-1.056000000E+010.0000000000E+00+
*       7.2930000000E+01               0
GRID*               3520               0-1.056000000E+010.0000000000E+00+
*       7.2920000000E+01               0
GRID*               3521               0-1.056000000E+010.0000000000E+00+
*       7.2910000000E+01               0
GRID*               3522               0-1.056000000E+010.0000000000E+00+
*       7.2900000000E+01               0
GRID*               3523               0-1.056000000E+010.0000000000E+00+
*       7.2890000000E+01               0
GRID*               3524               0-1.056000000E+010.0000000000E+00+
*       7.2880000000E+01               0
GRID*               3525               0-1.056000000E+010.0000000000E+00+
*       7.2870000000E+01               0
GRID*               3526               0-1.056000000E+010.0000000000E+00+
*       7.2860000000E+01               0
GRID*               3527               0-1.056000000E+010.0000000000E+00+
*       7.2850000000E+01               0
GRID*               3528               0-1.056000000E+010.0000000000E+00+
*       7.2840000000E+01               0
GRID*               3529               0-1.056000000E+010.0000000000E+00+
*       7.2830000000E+01               0
GRID*               3530               0-1.056000000E+010.0000000000E+00+
*       7.2820000000E+01               0
GRID*               3531               0-1.056000000E+010.0000000000E+00+
*       7.2810000000E+01               0
GRID*               3532               0-1.056000000E+010.0000000000E+00+
*       7.2800000000E+01               0
GRID*               3533               0-1.056000000E+010.0000000000E+00+
*       7.2790000000E+01               0
GRID*               3534               0-1.056000000E+010.0000000000E+00+
*       7.2780000000E+01               0
GRID*               3535               0-1.056000000E+010.0000000000E+00+
*       7.2770000000E+01               0
GRID*               3536               0-1.056000000E+010.0000000000E+00+
*       7.2760000000E+01               0
GRID*               3537               0-1.056000000E+010.0000000000E+00+
*       7.2750000000E+01               0
GRID*               3538               0-1.056000000E+010.0000000000E+00+
*       7.2740000000E+01               0
GRID*               3539               0-1.056000000E+010.0000000000E+00+
*       7.2730000000E+01               0
GRID*               3540               0-1.056000000E+010.0000000000E+00+
*       7.2720000000E+01               0
GRID*               3541               0-1.056000000E+010.0000000000E+00+
*       7.2710000000E+01               0
GRID*               3542               0-1.056000000E+010.0000000000E+00+
*       7.2700000000E+01               0
GRID*               3543               0-1.056000000E+010.0000000000E+00+
*       7.2690000000E+01               0
GRID*               3544               0-1.056000000E+010.0000000000E+00+
*       7.2680000000E+01               0
GRID*               3545               0-1.056000000E+010.0000000000E+00+
*       7.2670000000E+01               0
GRID*               3546               0-1.056000000E+010.0000000000E+00+
*       7.2660000000E+01               0
GRID*               3547               0-1.056000000E+010.0000000000E+00+
*       7.2650000000E+01               0
GRID*               3548               0-1.056000000E+010.0000000000E+00+
*       7.2640000000E+01               0
GRID*               3549               0-1.056000000E+010.0000000000E+00+
*       7.2630000000E+01               0
GRID*               3550               0-1.056000000E+010.0000000000E+00+
*       7.2620000000E+01               0
GRID*               3551               0-1.056000000E+010.0000000000E+00+
*       7.2610000000E+01               0
GRID*               3552               0-1.056000000E+010.0000000000E+00+
*       7.2600000000E+01               0
GRID*               3553               0-1.056000000E+010.0000000000E+00+
*       7.2590000000E+01               0
GRID*               3554               0-1.056000000E+010.0000000000E+00+
*       7.2580000000E+01               0
GRID*               3555               0-1.056000000E+010.0000000000E+00+
*       7.2570000000E+01               0
GRID*               3556               0-1.056000000E+010.0000000000E+00+
*       7.2560000000E+01               0
GRID*               3557               0-1.056000000E+010.0000000000E+00+
*       7.2550000000E+01               0
GRID*               3558               0-1.056000000E+010.0000000000E+00+
*       7.2540000000E+01               0
GRID*               3559               0-1.056000000E+010.0000000000E+00+
*       7.2530000000E+01               0
GRID*               3560               0-1.056000000E+010.0000000000E+00+
*       7.2520000000E+01               0
GRID*               3561               0-1.056000000E+010.0000000000E+00+
*       7.2510000000E+01               0
GRID*               3562               0-1.056000000E+010.0000000000E+00+
*       7.2500000000E+01               0
GRID*               3563               0-1.056000000E+010.0000000000E+00+
*       7.2490000000E+01               0
GRID*               3564               0-1.056000000E+010.0000000000E+00+
*       7.2480000000E+01               0
GRID*               3565               0-1.056000000E+010.0000000000E+00+
*       7.2470000000E+01               0
GRID*               3566               0-1.056000000E+010.0000000000E+00+
*       7.2460000000E+01               0
GRID*               3567               0-1.056000000E+010.0000000000E+00+
*       7.2450000000E+01               0
GRID*               3568               0-1.056000000E+010.0000000000E+00+
*       7.2440000000E+01               0
GRID*               3569               0-1.056000000E+010.0000000000E+00+
*       7.2430000000E+01               0
GRID*               3570               0-1.056000000E+010.0000000000E+00+
*       7.2420000000E+01               0
GRID*               3571               0-1.056000000E+010.0000000000E+00+
*       7.2410000000E+01               0
GRID*               3572               0-1.056000000E+010.0000000000E+00+
*       7.2400000000E+01               0
GRID*               3573               0-1.056000000E+010.0000000000E+00+
*       7.2390000000E+01               0
GRID*               3574               0-1.056000000E+010.0000000000E+00+
*       7.2380000000E+01               0
GRID*               3575               0-1.056000000E+010.0000000000E+00+
*       7.2370000000E+01               0
GRID*               3576               0-1.056000000E+010.0000000000E+00+
*       7.2360000000E+01               0
GRID*               3577               0-1.056000000E+010.0000000000E+00+
*       7.2350000000E+01               0
GRID*               3578               0-1.056000000E+010.0000000000E+00+
*       7.2340000000E+01               0
GRID*               3579               0-1.056000000E+010.0000000000E+00+
*       7.2330000000E+01               0
GRID*               3580               0-1.056000000E+010.0000000000E+00+
*       7.2320000000E+01               0
GRID*               3581               0-1.056000000E+010.0000000000E+00+
*       7.2310000000E+01               0
GRID*               3582               0-1.056000000E+010.0000000000E+00+
*       7.2300000000E+01               0
GRID*               3583               0-1.056000000E+010.0000000000E+00+
*       7.2290000000E+01               0
GRID*               3584               0-1.056000000E+010.0000000000E+00+
*       7.2280000000E+01               0
GRID*               3585               0-1.056000000E+010.0000000000E+00+
*       7.2270000000E+01               0
GRID*               3586               0-1.056000000E+010.0000000000E+00+
*       7.2260000000E+01               0
GRID*               3587               0-1.056000000E+010.0000000000E+00+
*       7.2250000000E+01               0
GRID*               3588               0-1.056000000E+010.0000000000E+00+
*       7.2240000000E+01               0
GRID*               3589               0-1.056000000E+010.0000000000E+00+
*       7.2230000000E+01               0
GRID*               3590               0-1.056000000E+010.0000000000E+00+
*       7.2220000000E+01               0
GRID*               3591               0-1.056000000E+010.0000000000E+00+
*       7.2210000000E+01               0
GRID*               3592               0-1.056000000E+010.0000000000E+00+
*       7.2200000000E+01               0
GRID*               3593               0-1.056000000E+010.0000000000E+00+
*       7.2190000000E+01               0
GRID*               3594               0-1.056000000E+010.0000000000E+00+
*       7.2180000000E+01               0
GRID*               3595               0-1.056000000E+010.0000000000E+00+
*       7.2170000000E+01               0
GRID*               3596               0-1.056000000E+010.0000000000E+00+
*       7.2160000000E+01               0
GRID*               3597               0-1.056000000E+010.0000000000E+00+
*       7.2150000000E+01               0
GRID*               3598               0-1.056000000E+010.0000000000E+00+
*       7.2140000000E+01               0
GRID*               3599               0-1.056000000E+010.0000000000E+00+
*       7.2130000000E+01               0
GRID*               3600               0-1.056000000E+010.0000000000E+00+
*       7.2120000000E+01               0
GRID*               3601               0-1.056000000E+010.0000000000E+00+
*       7.2110000000E+01               0
GRID*               3602               0-1.056000000E+010.0000000000E+00+
*       7.2100000000E+01               0
GRID*               3603               0-1.056000000E+010.0000000000E+00+
*       7.2090000000E+01               0
GRID*               3604               0-1.056000000E+010.0000000000E+00+
*       7.2080000000E+01               0
GRID*               3605               0-1.056000000E+010.0000000000E+00+
*       7.2070000000E+01               0
GRID*               3606               0-1.056000000E+010.0000000000E+00+
*       7.2060000000E+01               0
GRID*               3607               0-1.056000000E+010.0000000000E+00+
*       7.2050000000E+01               0
GRID*               3608               0-1.056000000E+010.0000000000E+00+
*       7.2040000000E+01               0
GRID*               3609               0-1.056000000E+010.0000000000E+00+
*       7.2030000000E+01               0
GRID*               3610               0-1.056000000E+010.0000000000E+00+
*       7.2020000000E+01               0
GRID*               3611               0-1.056000000E+010.0000000000E+00+
*       7.2010000000E+01               0
GRID*               3612               0-1.056000000E+010.0000000000E+00+
*       7.2000000000E+01               0
GRID*               3613               0-1.056000000E+010.0000000000E+00+
*       7.1990000000E+01               0
GRID*               3614               0-1.056000000E+010.0000000000E+00+
*       7.1980000000E+01               0
GRID*               3615               0-1.056000000E+010.0000000000E+00+
*       7.1970000000E+01               0
GRID*               3616               0-1.056000000E+010.0000000000E+00+
*       7.1960000000E+01               0
GRID*               3617               0-1.056000000E+010.0000000000E+00+
*       7.1950000000E+01               0
GRID*               3618               0-1.056000000E+010.0000000000E+00+
*       7.1940000000E+01               0
GRID*               3619               0-1.056000000E+010.0000000000E+00+
*       7.1930000000E+01               0
GRID*               3620               0-1.056000000E+010.0000000000E+00+
*       7.1920000000E+01               0
GRID*               3621               0-1.056000000E+010.0000000000E+00+
*       7.1910000000E+01               0
GRID*               3622               0-1.056000000E+010.0000000000E+00+
*       7.1900000000E+01               0
GRID*               3623               0-1.056000000E+010.0000000000E+00+
*       7.1890000000E+01               0
GRID*               3624               0-1.056000000E+010.0000000000E+00+
*       7.1880000000E+01               0
GRID*               3625               0-1.056000000E+010.0000000000E+00+
*       7.1870000000E+01               0
GRID*               3626               0-1.056000000E+010.0000000000E+00+
*       7.1860000000E+01               0
GRID*               3627               0-1.056000000E+010.0000000000E+00+
*       7.1850000000E+01               0
GRID*               3628               0-1.056000000E+010.0000000000E+00+
*       7.1840000000E+01               0
GRID*               3629               0-5.340000000E+000.0000000000E+00+
*       1.2217000000E+02               0
GRID*               3630               0-5.341735537E+000.0000000000E+00+
*       1.2216014876E+02               0
GRID*               3631               0-5.343471074E+000.0000000000E+00+
*       1.2215029752E+02               0
GRID*               3632               0-5.345206612E+000.0000000000E+00+
*       1.2214044628E+02               0
GRID*               3633               0-5.346942149E+000.0000000000E+00+
*       1.2213059504E+02               0
GRID*               3634               0-5.348677686E+000.0000000000E+00+
*       1.2212074380E+02               0
GRID*               3635               0-5.350413223E+000.0000000000E+00+
*       1.2211089256E+02               0
GRID*               3636               0-5.352148760E+000.0000000000E+00+
*       1.2210104132E+02               0
GRID*               3637               0-5.353884298E+000.0000000000E+00+
*       1.2209119008E+02               0
GRID*               3638               0-5.355619835E+000.0000000000E+00+
*       1.2208133884E+02               0
GRID*               3639               0-5.357355372E+000.0000000000E+00+
*       1.2207148760E+02               0
GRID*               3640               0-5.359090909E+000.0000000000E+00+
*       1.2206163636E+02               0
GRID*               3641               0-5.360826446E+000.0000000000E+00+
*       1.2205178512E+02               0
GRID*               3642               0-5.362561983E+000.0000000000E+00+
*       1.2204193388E+02               0
GRID*               3643               0-5.364297521E+000.0000000000E+00+
*       1.2203208264E+02               0
GRID*               3644               0-5.366033058E+000.0000000000E+00+
*       1.2202223140E+02               0
GRID*               3645               0-5.367768595E+000.0000000000E+00+
*       1.2201238017E+02               0
GRID*               3646               0-5.369504132E+000.0000000000E+00+
*       1.2200252893E+02               0
GRID*               3647               0-5.371239669E+000.0000000000E+00+
*       1.2199267769E+02               0
GRID*               3648               0-5.372975207E+000.0000000000E+00+
*       1.2198282645E+02               0
GRID*               3649               0-5.374710744E+000.0000000000E+00+
*       1.2197297521E+02               0
GRID*               3650               0-5.376446281E+000.0000000000E+00+
*       1.2196312397E+02               0
GRID*               3651               0-5.378181818E+000.0000000000E+00+
*       1.2195327273E+02               0
GRID*               3652               0-5.379917355E+000.0000000000E+00+
*       1.2194342149E+02               0
GRID*               3653               0-5.381652893E+000.0000000000E+00+
*       1.2193357025E+02               0
GRID*               3654               0-5.383388430E+000.0000000000E+00+
*       1.2192371901E+02               0
GRID*               3655               0-5.385123967E+000.0000000000E+00+
*       1.2191386777E+02               0
GRID*               3656               0-5.386859504E+000.0000000000E+00+
*       1.2190401653E+02               0
GRID*               3657               0-5.388595041E+000.0000000000E+00+
*       1.2189416529E+02               0
GRID*               3658               0-5.390330579E+000.0000000000E+00+
*       1.2188431405E+02               0
GRID*               3659               0-5.392066116E+000.0000000000E+00+
*       1.2187446281E+02               0
GRID*               3660               0-5.393801653E+000.0000000000E+00+
*       1.2186461157E+02               0
GRID*               3661               0-5.395537190E+000.0000000000E+00+
*       1.2185476033E+02               0
GRID*               3662               0-5.397272727E+000.0000000000E+00+
*       1.2184490909E+02               0
GRID*               3663               0-5.399008264E+000.0000000000E+00+
*       1.2183505785E+02               0
GRID*               3664               0-5.400743802E+000.0000000000E+00+
*       1.2182520661E+02               0
GRID*               3665               0-5.402479339E+000.0000000000E+00+
*       1.2181535537E+02               0
GRID*               3666               0-5.404214876E+000.0000000000E+00+
*       1.2180550413E+02               0
GRID*               3667               0-5.405950413E+000.0000000000E+00+
*       1.2179565289E+02               0
GRID*               3668               0-5.407685950E+000.0000000000E+00+
*       1.2178580165E+02               0
GRID*               3669               0-5.409421488E+000.0000000000E+00+
*       1.2177595041E+02               0
GRID*               3670               0-5.411157025E+000.0000000000E+00+
*       1.2176609917E+02               0
GRID*               3671               0-5.412892562E+000.0000000000E+00+
*       1.2175624793E+02               0
GRID*               3672               0-5.414628099E+000.0000000000E+00+
*       1.2174639669E+02               0
GRID*               3673               0-5.416363636E+000.0000000000E+00+
*       1.2173654545E+02               0
GRID*               3674               0-5.418099174E+000.0000000000E+00+
*       1.2172669421E+02               0
GRID*               3675               0-5.419834711E+000.0000000000E+00+
*       1.2171684298E+02               0
GRID*               3676               0-5.421570248E+000.0000000000E+00+
*       1.2170699174E+02               0
GRID*               3677               0-5.423305785E+000.0000000000E+00+
*       1.2169714050E+02               0
GRID*               3678               0-5.425041322E+000.0000000000E+00+
*       1.2168728926E+02               0
GRID*               3679               0-5.426776860E+000.0000000000E+00+
*       1.2167743802E+02               0
GRID*               3680               0-5.428512397E+000.0000000000E+00+
*       1.2166758678E+02               0
GRID*               3681               0-5.430247934E+000.0000000000E+00+
*       1.2165773554E+02               0
GRID*               3682               0-5.431983471E+000.0000000000E+00+
*       1.2164788430E+02               0
GRID*               3683               0-5.433719008E+000.0000000000E+00+
*       1.2163803306E+02               0
GRID*               3684               0-5.435454545E+000.0000000000E+00+
*       1.2162818182E+02               0
GRID*               3685               0-5.437190083E+000.0000000000E+00+
*       1.2161833058E+02               0
GRID*               3686               0-5.438925620E+000.0000000000E+00+
*       1.2160847934E+02               0
GRID*               3687               0-5.440661157E+000.0000000000E+00+
*       1.2159862810E+02               0
GRID*               3688               0-5.442396694E+000.0000000000E+00+
*       1.2158877686E+02               0
GRID*               3689               0-5.444132231E+000.0000000000E+00+
*       1.2157892562E+02               0
GRID*               3690               0-5.445867769E+000.0000000000E+00+
*       1.2156907438E+02               0
GRID*               3691               0-5.447603306E+000.0000000000E+00+
*       1.2155922314E+02               0
GRID*               3692               0-5.449338843E+000.0000000000E+00+
*       1.2154937190E+02               0
GRID*               3693               0-5.451074380E+000.0000000000E+00+
*       1.2153952066E+02               0
GRID*               3694               0-5.452809917E+000.0000000000E+00+
*       1.2152966942E+02               0
GRID*               3695               0-5.454545455E+000.0000000000E+00+
*       1.2151981818E+02               0
GRID*               3696               0-5.456280992E+000.0000000000E+00+
*       1.2150996694E+02               0
GRID*               3697               0-5.458016529E+000.0000000000E+00+
*       1.2150011570E+02               0
GRID*               3698               0-5.459752066E+000.0000000000E+00+
*       1.2149026446E+02               0
GRID*               3699               0-5.461487603E+000.0000000000E+00+
*       1.2148041322E+02               0
GRID*               3700               0-5.463223140E+000.0000000000E+00+
*       1.2147056198E+02               0
GRID*               3701               0-5.464958678E+000.0000000000E+00+
*       1.2146071074E+02               0
GRID*               3702               0-5.466694215E+000.0000000000E+00+
*       1.2145085950E+02               0
GRID*               3703               0-5.468429752E+000.0000000000E+00+
*       1.2144100826E+02               0
GRID*               3704               0-5.470165289E+000.0000000000E+00+
*       1.2143115702E+02               0
GRID*               3705               0-5.471900826E+000.0000000000E+00+
*       1.2142130579E+02               0
GRID*               3706               0-5.473636364E+000.0000000000E+00+
*       1.2141145455E+02               0
GRID*               3707               0-5.475371901E+000.0000000000E+00+
*       1.2140160331E+02               0
GRID*               3708               0-5.477107438E+000.0000000000E+00+
*       1.2139175207E+02               0
GRID*               3709               0-5.478842975E+000.0000000000E+00+
*       1.2138190083E+02               0
GRID*               3710               0-5.480578512E+000.0000000000E+00+
*       1.2137204959E+02               0
GRID*               3711               0-5.482314050E+000.0000000000E+00+
*       1.2136219835E+02               0
GRID*               3712               0-5.484049587E+000.0000000000E+00+
*       1.2135234711E+02               0
GRID*               3713               0-5.485785124E+000.0000000000E+00+
*       1.2134249587E+02               0
GRID*               3714               0-5.487520661E+000.0000000000E+00+
*       1.2133264463E+02               0
GRID*               3715               0-5.489256198E+000.0000000000E+00+
*       1.2132279339E+02               0
GRID*               3716               0-5.490991736E+000.0000000000E+00+
*       1.2131294215E+02               0
GRID*               3717               0-5.492727273E+000.0000000000E+00+
*       1.2130309091E+02               0
GRID*               3718               0-5.494462810E+000.0000000000E+00+
*       1.2129323967E+02               0
GRID*               3719               0-5.496198347E+000.0000000000E+00+
*       1.2128338843E+02               0
GRID*               3720               0-5.497933884E+000.0000000000E+00+
*       1.2127353719E+02               0
GRID*               3721               0-5.499669421E+000.0000000000E+00+
*       1.2126368595E+02               0
GRID*               3722               0-5.501404959E+000.0000000000E+00+
*       1.2125383471E+02               0
GRID*               3723               0-5.503140496E+000.0000000000E+00+
*       1.2124398347E+02               0
GRID*               3724               0-5.504876033E+000.0000000000E+00+
*       1.2123413223E+02               0
GRID*               3725               0-5.506611570E+000.0000000000E+00+
*       1.2122428099E+02               0
GRID*               3726               0-5.508347107E+000.0000000000E+00+
*       1.2121442975E+02               0
GRID*               3727               0-5.510082645E+000.0000000000E+00+
*       1.2120457851E+02               0
GRID*               3728               0-5.511818182E+000.0000000000E+00+
*       1.2119472727E+02               0
GRID*               3729               0-5.513553719E+000.0000000000E+00+
*       1.2118487603E+02               0
GRID*               3730               0-5.515289256E+000.0000000000E+00+
*       1.2117502479E+02               0
GRID*               3731               0-5.517024793E+000.0000000000E+00+
*       1.2116517355E+02               0
GRID*               3732               0-5.518760331E+000.0000000000E+00+
*       1.2115532231E+02               0
GRID*               3733               0-5.520495868E+000.0000000000E+00+
*       1.2114547107E+02               0
GRID*               3734               0-5.522231405E+000.0000000000E+00+
*       1.2113561983E+02               0
GRID*               3735               0-5.523966942E+000.0000000000E+00+
*       1.2112576860E+02               0
GRID*               3736               0-5.525702479E+000.0000000000E+00+
*       1.2111591736E+02               0
GRID*               3737               0-5.527438017E+000.0000000000E+00+
*       1.2110606612E+02               0
GRID*               3738               0-5.529173554E+000.0000000000E+00+
*       1.2109621488E+02               0
GRID*               3739               0-5.530909091E+000.0000000000E+00+
*       1.2108636364E+02               0
GRID*               3740               0-5.532644628E+000.0000000000E+00+
*       1.2107651240E+02               0
GRID*               3741               0-5.534380165E+000.0000000000E+00+
*       1.2106666116E+02               0
GRID*               3742               0-5.536115702E+000.0000000000E+00+
*       1.2105680992E+02               0
GRID*               3743               0-5.537851240E+000.0000000000E+00+
*       1.2104695868E+02               0
GRID*               3744               0-5.539586777E+000.0000000000E+00+
*       1.2103710744E+02               0
GRID*               3745               0-5.541322314E+000.0000000000E+00+
*       1.2102725620E+02               0
GRID*               3746               0-5.543057851E+000.0000000000E+00+
*       1.2101740496E+02               0
GRID*               3747               0-5.544793388E+000.0000000000E+00+
*       1.2100755372E+02               0
GRID*               3748               0-5.546528926E+000.0000000000E+00+
*       1.2099770248E+02               0
GRID*               3749               0-5.548264463E+000.0000000000E+00+
*       1.2098785124E+02               0
GRID*               3750               0-5.550000000E+000.0000000000E+00+
*       1.2097800000E+02               0
GRID*               3751               0-5.551735537E+000.0000000000E+00+
*       1.2096814876E+02               0
GRID*               3752               0-5.553471074E+000.0000000000E+00+
*       1.2095829752E+02               0
GRID*               3753               0-5.555206612E+000.0000000000E+00+
*       1.2094844628E+02               0
GRID*               3754               0-5.556942149E+000.0000000000E+00+
*       1.2093859504E+02               0
GRID*               3755               0-5.558677686E+000.0000000000E+00+
*       1.2092874380E+02               0
GRID*               3756               0-5.560413223E+000.0000000000E+00+
*       1.2091889256E+02               0
GRID*               3757               0-5.562148760E+000.0000000000E+00+
*       1.2090904132E+02               0
GRID*               3758               0-5.563884298E+000.0000000000E+00+
*       1.2089919008E+02               0
GRID*               3759               0-5.565619835E+000.0000000000E+00+
*       1.2088933884E+02               0
GRID*               3760               0-5.567355372E+000.0000000000E+00+
*       1.2087948760E+02               0
GRID*               3761               0-5.569090909E+000.0000000000E+00+
*       1.2086963636E+02               0
GRID*               3762               0-5.570826446E+000.0000000000E+00+
*       1.2085978512E+02               0
GRID*               3763               0-5.572561983E+000.0000000000E+00+
*       1.2084993388E+02               0
GRID*               3764               0-5.574297521E+000.0000000000E+00+
*       1.2084008264E+02               0
GRID*               3765               0-5.576033058E+000.0000000000E+00+
*       1.2083023140E+02               0
GRID*               3766               0-5.577768595E+000.0000000000E+00+
*       1.2082038017E+02               0
GRID*               3767               0-5.579504132E+000.0000000000E+00+
*       1.2081052893E+02               0
GRID*               3768               0-5.581239669E+000.0000000000E+00+
*       1.2080067769E+02               0
GRID*               3769               0-5.582975207E+000.0000000000E+00+
*       1.2079082645E+02               0
GRID*               3770               0-5.584710744E+000.0000000000E+00+
*       1.2078097521E+02               0
GRID*               3771               0-5.586446281E+000.0000000000E+00+
*       1.2077112397E+02               0
GRID*               3772               0-5.588181818E+000.0000000000E+00+
*       1.2076127273E+02               0
GRID*               3773               0-5.589917355E+000.0000000000E+00+
*       1.2075142149E+02               0
GRID*               3774               0-5.591652893E+000.0000000000E+00+
*       1.2074157025E+02               0
GRID*               3775               0-5.593388430E+000.0000000000E+00+
*       1.2073171901E+02               0
GRID*               3776               0-5.595123967E+000.0000000000E+00+
*       1.2072186777E+02               0
GRID*               3777               0-5.596859504E+000.0000000000E+00+
*       1.2071201653E+02               0
GRID*               3778               0-5.598595041E+000.0000000000E+00+
*       1.2070216529E+02               0
GRID*               3779               0-5.600330579E+000.0000000000E+00+
*       1.2069231405E+02               0
GRID*               3780               0-5.602066116E+000.0000000000E+00+
*       1.2068246281E+02               0
GRID*               3781               0-5.603801653E+000.0000000000E+00+
*       1.2067261157E+02               0
GRID*               3782               0-5.605537190E+000.0000000000E+00+
*       1.2066276033E+02               0
GRID*               3783               0-5.607272727E+000.0000000000E+00+
*       1.2065290909E+02               0
GRID*               3784               0-5.609008264E+000.0000000000E+00+
*       1.2064305785E+02               0
GRID*               3785               0-5.610743802E+000.0000000000E+00+
*       1.2063320661E+02               0
GRID*               3786               0-5.612479339E+000.0000000000E+00+
*       1.2062335537E+02               0
GRID*               3787               0-5.614214876E+000.0000000000E+00+
*       1.2061350413E+02               0
GRID*               3788               0-5.615950413E+000.0000000000E+00+
*       1.2060365289E+02               0
GRID*               3789               0-5.617685950E+000.0000000000E+00+
*       1.2059380165E+02               0
GRID*               3790               0-5.619421488E+000.0000000000E+00+
*       1.2058395041E+02               0
GRID*               3791               0-5.621157025E+000.0000000000E+00+
*       1.2057409917E+02               0
GRID*               3792               0-5.622892562E+000.0000000000E+00+
*       1.2056424793E+02               0
GRID*               3793               0-5.624628099E+000.0000000000E+00+
*       1.2055439669E+02               0
GRID*               3794               0-5.626363636E+000.0000000000E+00+
*       1.2054454545E+02               0
GRID*               3795               0-5.628099174E+000.0000000000E+00+
*       1.2053469421E+02               0
GRID*               3796               0-5.629834711E+000.0000000000E+00+
*       1.2052484298E+02               0
GRID*               3797               0-5.631570248E+000.0000000000E+00+
*       1.2051499174E+02               0
GRID*               3798               0-5.633305785E+000.0000000000E+00+
*       1.2050514050E+02               0
GRID*               3799               0-5.635041322E+000.0000000000E+00+
*       1.2049528926E+02               0
GRID*               3800               0-5.636776860E+000.0000000000E+00+
*       1.2048543802E+02               0
GRID*               3801               0-5.638512397E+000.0000000000E+00+
*       1.2047558678E+02               0
GRID*               3802               0-5.640247934E+000.0000000000E+00+
*       1.2046573554E+02               0
GRID*               3803               0-5.641983471E+000.0000000000E+00+
*       1.2045588430E+02               0
GRID*               3804               0-5.643719008E+000.0000000000E+00+
*       1.2044603306E+02               0
GRID*               3805               0-5.645454545E+000.0000000000E+00+
*       1.2043618182E+02               0
GRID*               3806               0-5.647190083E+000.0000000000E+00+
*       1.2042633058E+02               0
GRID*               3807               0-5.648925620E+000.0000000000E+00+
*       1.2041647934E+02               0
GRID*               3808               0-5.650661157E+000.0000000000E+00+
*       1.2040662810E+02               0
GRID*               3809               0-5.652396694E+000.0000000000E+00+
*       1.2039677686E+02               0
GRID*               3810               0-5.654132231E+000.0000000000E+00+
*       1.2038692562E+02               0
GRID*               3811               0-5.655867769E+000.0000000000E+00+
*       1.2037707438E+02               0
GRID*               3812               0-5.657603306E+000.0000000000E+00+
*       1.2036722314E+02               0
GRID*               3813               0-5.659338843E+000.0000000000E+00+
*       1.2035737190E+02               0
GRID*               3814               0-5.661074380E+000.0000000000E+00+
*       1.2034752066E+02               0
GRID*               3815               0-5.662809917E+000.0000000000E+00+
*       1.2033766942E+02               0
GRID*               3816               0-5.664545455E+000.0000000000E+00+
*       1.2032781818E+02               0
GRID*               3817               0-5.666280992E+000.0000000000E+00+
*       1.2031796694E+02               0
GRID*               3818               0-5.668016529E+000.0000000000E+00+
*       1.2030811570E+02               0
GRID*               3819               0-5.669752066E+000.0000000000E+00+
*       1.2029826446E+02               0
GRID*               3820               0-5.671487603E+000.0000000000E+00+
*       1.2028841322E+02               0
GRID*               3821               0-5.673223140E+000.0000000000E+00+
*       1.2027856198E+02               0
GRID*               3822               0-5.674958678E+000.0000000000E+00+
*       1.2026871074E+02               0
GRID*               3823               0-5.676694215E+000.0000000000E+00+
*       1.2025885950E+02               0
GRID*               3824               0-5.678429752E+000.0000000000E+00+
*       1.2024900826E+02               0
GRID*               3825               0-5.680165289E+000.0000000000E+00+
*       1.2023915702E+02               0
GRID*               3826               0-5.681900826E+000.0000000000E+00+
*       1.2022930579E+02               0
GRID*               3827               0-5.683636364E+000.0000000000E+00+
*       1.2021945455E+02               0
GRID*               3828               0-5.685371901E+000.0000000000E+00+
*       1.2020960331E+02               0
GRID*               3829               0-5.687107438E+000.0000000000E+00+
*       1.2019975207E+02               0
GRID*               3830               0-5.688842975E+000.0000000000E+00+
*       1.2018990083E+02               0
GRID*               3831               0-5.690578512E+000.0000000000E+00+
*       1.2018004959E+02               0
GRID*               3832               0-5.692314050E+000.0000000000E+00+
*       1.2017019835E+02               0
GRID*               3833               0-5.694049587E+000.0000000000E+00+
*       1.2016034711E+02               0
GRID*               3834               0-5.695785124E+000.0000000000E+00+
*       1.2015049587E+02               0
GRID*               3835               0-5.697520661E+000.0000000000E+00+
*       1.2014064463E+02               0
GRID*               3836               0-5.699256198E+000.0000000000E+00+
*       1.2013079339E+02               0
GRID*               3837               0-5.700991736E+000.0000000000E+00+
*       1.2012094215E+02               0
GRID*               3838               0-5.702727273E+000.0000000000E+00+
*       1.2011109091E+02               0
GRID*               3839               0-5.704462810E+000.0000000000E+00+
*       1.2010123967E+02               0
GRID*               3840               0-5.706198347E+000.0000000000E+00+
*       1.2009138843E+02               0
GRID*               3841               0-5.707933884E+000.0000000000E+00+
*       1.2008153719E+02               0
GRID*               3842               0-5.709669421E+000.0000000000E+00+
*       1.2007168595E+02               0
GRID*               3843               0-5.711404959E+000.0000000000E+00+
*       1.2006183471E+02               0
GRID*               3844               0-5.713140496E+000.0000000000E+00+
*       1.2005198347E+02               0
GRID*               3845               0-5.714876033E+000.0000000000E+00+
*       1.2004213223E+02               0
GRID*               3846               0-5.716611570E+000.0000000000E+00+
*       1.2003228099E+02               0
GRID*               3847               0-5.718347107E+000.0000000000E+00+
*       1.2002242975E+02               0
GRID*               3848               0-5.720082645E+000.0000000000E+00+
*       1.2001257851E+02               0
GRID*               3849               0-5.721818182E+000.0000000000E+00+
*       1.2000272727E+02               0
GRID*               3850               0-5.723553719E+000.0000000000E+00+
*       1.1999287603E+02               0
GRID*               3851               0-5.725289256E+000.0000000000E+00+
*       1.1998302479E+02               0
GRID*               3852               0-5.727024793E+000.0000000000E+00+
*       1.1997317355E+02               0
GRID*               3853               0-5.728760331E+000.0000000000E+00+
*       1.1996332231E+02               0
GRID*               3854               0-5.730495868E+000.0000000000E+00+
*       1.1995347107E+02               0
GRID*               3855               0-5.732231405E+000.0000000000E+00+
*       1.1994361983E+02               0
GRID*               3856               0-5.733966942E+000.0000000000E+00+
*       1.1993376860E+02               0
GRID*               3857               0-5.735702479E+000.0000000000E+00+
*       1.1992391736E+02               0
GRID*               3858               0-5.737438017E+000.0000000000E+00+
*       1.1991406612E+02               0
GRID*               3859               0-5.739173554E+000.0000000000E+00+
*       1.1990421488E+02               0
GRID*               3860               0-5.740909091E+000.0000000000E+00+
*       1.1989436364E+02               0
GRID*               3861               0-5.742644628E+000.0000000000E+00+
*       1.1988451240E+02               0
GRID*               3862               0-5.744380165E+000.0000000000E+00+
*       1.1987466116E+02               0
GRID*               3863               0-5.746115702E+000.0000000000E+00+
*       1.1986480992E+02               0
GRID*               3864               0-5.747851240E+000.0000000000E+00+
*       1.1985495868E+02               0
GRID*               3865               0-5.749586777E+000.0000000000E+00+
*       1.1984510744E+02               0
GRID*               3866               0-5.751322314E+000.0000000000E+00+
*       1.1983525620E+02               0
GRID*               3867               0-5.753057851E+000.0000000000E+00+
*       1.1982540496E+02               0
GRID*               3868               0-5.754793388E+000.0000000000E+00+
*       1.1981555372E+02               0
GRID*               3869               0-5.756528926E+000.0000000000E+00+
*       1.1980570248E+02               0
GRID*               3870               0-5.758264463E+000.0000000000E+00+
*       1.1979585124E+02               0
GRID*               3871               0-5.760000000E+000.0000000000E+00+
*       1.1978600000E+02               0
GRID*               3872               0-5.761735537E+000.0000000000E+00+
*       1.1977614876E+02               0
GRID*               3873               0-5.763471074E+000.0000000000E+00+
*       1.1976629752E+02               0
GRID*               3874               0-5.765206612E+000.0000000000E+00+
*       1.1975644628E+02               0
GRID*               3875               0-5.766942149E+000.0000000000E+00+
*       1.1974659504E+02               0
GRID*               3876               0-5.768677686E+000.0000000000E+00+
*       1.1973674380E+02               0
GRID*               3877               0-5.770413223E+000.0000000000E+00+
*       1.1972689256E+02               0
GRID*               3878               0-5.772148760E+000.0000000000E+00+
*       1.1971704132E+02               0
GRID*               3879               0-5.773884298E+000.0000000000E+00+
*       1.1970719008E+02               0
GRID*               3880               0-5.775619835E+000.0000000000E+00+
*       1.1969733884E+02               0
GRID*               3881               0-5.777355372E+000.0000000000E+00+
*       1.1968748760E+02               0
GRID*               3882               0-5.779090909E+000.0000000000E+00+
*       1.1967763636E+02               0
GRID*               3883               0-5.780826446E+000.0000000000E+00+
*       1.1966778512E+02               0
GRID*               3884               0-5.782561983E+000.0000000000E+00+
*       1.1965793388E+02               0
GRID*               3885               0-5.784297521E+000.0000000000E+00+
*       1.1964808264E+02               0
GRID*               3886               0-5.786033058E+000.0000000000E+00+
*       1.1963823140E+02               0
GRID*               3887               0-5.787768595E+000.0000000000E+00+
*       1.1962838017E+02               0
GRID*               3888               0-5.789504132E+000.0000000000E+00+
*       1.1961852893E+02               0
GRID*               3889               0-5.791239669E+000.0000000000E+00+
*       1.1960867769E+02               0
GRID*               3890               0-5.792975207E+000.0000000000E+00+
*       1.1959882645E+02               0
GRID*               3891               0-5.794710744E+000.0000000000E+00+
*       1.1958897521E+02               0
GRID*               3892               0-5.796446281E+000.0000000000E+00+
*       1.1957912397E+02               0
GRID*               3893               0-5.798181818E+000.0000000000E+00+
*       1.1956927273E+02               0
GRID*               3894               0-5.799917355E+000.0000000000E+00+
*       1.1955942149E+02               0
GRID*               3895               0-5.801652893E+000.0000000000E+00+
*       1.1954957025E+02               0
GRID*               3896               0-5.803388430E+000.0000000000E+00+
*       1.1953971901E+02               0
GRID*               3897               0-5.805123967E+000.0000000000E+00+
*       1.1952986777E+02               0
GRID*               3898               0-5.806859504E+000.0000000000E+00+
*       1.1952001653E+02               0
GRID*               3899               0-5.808595041E+000.0000000000E+00+
*       1.1951016529E+02               0
GRID*               3900               0-5.810330579E+000.0000000000E+00+
*       1.1950031405E+02               0
GRID*               3901               0-5.812066116E+000.0000000000E+00+
*       1.1949046281E+02               0
GRID*               3902               0-5.813801653E+000.0000000000E+00+
*       1.1948061157E+02               0
GRID*               3903               0-5.815537190E+000.0000000000E+00+
*       1.1947076033E+02               0
GRID*               3904               0-5.817272727E+000.0000000000E+00+
*       1.1946090909E+02               0
GRID*               3905               0-5.819008264E+000.0000000000E+00+
*       1.1945105785E+02               0
GRID*               3906               0-5.820743802E+000.0000000000E+00+
*       1.1944120661E+02               0
GRID*               3907               0-5.822479339E+000.0000000000E+00+
*       1.1943135537E+02               0
GRID*               3908               0-5.824214876E+000.0000000000E+00+
*       1.1942150413E+02               0
GRID*               3909               0-5.825950413E+000.0000000000E+00+
*       1.1941165289E+02               0
GRID*               3910               0-5.827685950E+000.0000000000E+00+
*       1.1940180165E+02               0
GRID*               3911               0-5.829421488E+000.0000000000E+00+
*       1.1939195041E+02               0
GRID*               3912               0-5.831157025E+000.0000000000E+00+
*       1.1938209917E+02               0
GRID*               3913               0-5.832892562E+000.0000000000E+00+
*       1.1937224793E+02               0
GRID*               3914               0-5.834628099E+000.0000000000E+00+
*       1.1936239669E+02               0
GRID*               3915               0-5.836363636E+000.0000000000E+00+
*       1.1935254545E+02               0
GRID*               3916               0-5.838099174E+000.0000000000E+00+
*       1.1934269421E+02               0
GRID*               3917               0-5.839834711E+000.0000000000E+00+
*       1.1933284298E+02               0
GRID*               3918               0-5.841570248E+000.0000000000E+00+
*       1.1932299174E+02               0
GRID*               3919               0-5.843305785E+000.0000000000E+00+
*       1.1931314050E+02               0
GRID*               3920               0-5.845041322E+000.0000000000E+00+
*       1.1930328926E+02               0
GRID*               3921               0-5.846776860E+000.0000000000E+00+
*       1.1929343802E+02               0
GRID*               3922               0-5.848512397E+000.0000000000E+00+
*       1.1928358678E+02               0
GRID*               3923               0-5.850247934E+000.0000000000E+00+
*       1.1927373554E+02               0
GRID*               3924               0-5.851983471E+000.0000000000E+00+
*       1.1926388430E+02               0
GRID*               3925               0-5.853719008E+000.0000000000E+00+
*       1.1925403306E+02               0
GRID*               3926               0-5.855454545E+000.0000000000E+00+
*       1.1924418182E+02               0
GRID*               3927               0-5.857190083E+000.0000000000E+00+
*       1.1923433058E+02               0
GRID*               3928               0-5.858925620E+000.0000000000E+00+
*       1.1922447934E+02               0
GRID*               3929               0-5.860661157E+000.0000000000E+00+
*       1.1921462810E+02               0
GRID*               3930               0-5.862396694E+000.0000000000E+00+
*       1.1920477686E+02               0
GRID*               3931               0-5.864132231E+000.0000000000E+00+
*       1.1919492562E+02               0
GRID*               3932               0-5.865867769E+000.0000000000E+00+
*       1.1918507438E+02               0
GRID*               3933               0-5.867603306E+000.0000000000E+00+
*       1.1917522314E+02               0
GRID*               3934               0-5.869338843E+000.0000000000E+00+
*       1.1916537190E+02               0
GRID*               3935               0-5.871074380E+000.0000000000E+00+
*       1.1915552066E+02               0
GRID*               3936               0-5.872809917E+000.0000000000E+00+
*       1.1914566942E+02               0
GRID*               3937               0-5.874545455E+000.0000000000E+00+
*       1.1913581818E+02               0
GRID*               3938               0-5.876280992E+000.0000000000E+00+
*       1.1912596694E+02               0
GRID*               3939               0-5.878016529E+000.0000000000E+00+
*       1.1911611570E+02               0
GRID*               3940               0-5.879752066E+000.0000000000E+00+
*       1.1910626446E+02               0
GRID*               3941               0-5.881487603E+000.0000000000E+00+
*       1.1909641322E+02               0
GRID*               3942               0-5.883223140E+000.0000000000E+00+
*       1.1908656198E+02               0
GRID*               3943               0-5.884958678E+000.0000000000E+00+
*       1.1907671074E+02               0
GRID*               3944               0-5.886694215E+000.0000000000E+00+
*       1.1906685950E+02               0
GRID*               3945               0-5.888429752E+000.0000000000E+00+
*       1.1905700826E+02               0
GRID*               3946               0-5.890165289E+000.0000000000E+00+
*       1.1904715702E+02               0
GRID*               3947               0-5.891900826E+000.0000000000E+00+
*       1.1903730579E+02               0
GRID*               3948               0-5.893636364E+000.0000000000E+00+
*       1.1902745455E+02               0
GRID*               3949               0-5.895371901E+000.0000000000E+00+
*       1.1901760331E+02               0
GRID*               3950               0-5.897107438E+000.0000000000E+00+
*       1.1900775207E+02               0
GRID*               3951               0-5.898842975E+000.0000000000E+00+
*       1.1899790083E+02               0
GRID*               3952               0-5.900578512E+000.0000000000E+00+
*       1.1898804959E+02               0
GRID*               3953               0-5.902314050E+000.0000000000E+00+
*       1.1897819835E+02               0
GRID*               3954               0-5.904049587E+000.0000000000E+00+
*       1.1896834711E+02               0
GRID*               3955               0-5.905785124E+000.0000000000E+00+
*       1.1895849587E+02               0
GRID*               3956               0-5.907520661E+000.0000000000E+00+
*       1.1894864463E+02               0
GRID*               3957               0-5.909256198E+000.0000000000E+00+
*       1.1893879339E+02               0
GRID*               3958               0-5.910991736E+000.0000000000E+00+
*       1.1892894215E+02               0
GRID*               3959               0-5.912727273E+000.0000000000E+00+
*       1.1891909091E+02               0
GRID*               3960               0-5.914462810E+000.0000000000E+00+
*       1.1890923967E+02               0
GRID*               3961               0-5.916198347E+000.0000000000E+00+
*       1.1889938843E+02               0
GRID*               3962               0-5.917933884E+000.0000000000E+00+
*       1.1888953719E+02               0
GRID*               3963               0-5.919669421E+000.0000000000E+00+
*       1.1887968595E+02               0
GRID*               3964               0-5.921404959E+000.0000000000E+00+
*       1.1886983471E+02               0
GRID*               3965               0-5.923140496E+000.0000000000E+00+
*       1.1885998347E+02               0
GRID*               3966               0-5.924876033E+000.0000000000E+00+
*       1.1885013223E+02               0
GRID*               3967               0-5.926611570E+000.0000000000E+00+
*       1.1884028099E+02               0
GRID*               3968               0-5.928347107E+000.0000000000E+00+
*       1.1883042975E+02               0
GRID*               3969               0-5.930082645E+000.0000000000E+00+
*       1.1882057851E+02               0
GRID*               3970               0-5.931818182E+000.0000000000E+00+
*       1.1881072727E+02               0
GRID*               3971               0-5.933553719E+000.0000000000E+00+
*       1.1880087603E+02               0
GRID*               3972               0-5.935289256E+000.0000000000E+00+
*       1.1879102479E+02               0
GRID*               3973               0-5.937024793E+000.0000000000E+00+
*       1.1878117355E+02               0
GRID*               3974               0-5.938760331E+000.0000000000E+00+
*       1.1877132231E+02               0
GRID*               3975               0-5.940495868E+000.0000000000E+00+
*       1.1876147107E+02               0
GRID*               3976               0-5.942231405E+000.0000000000E+00+
*       1.1875161983E+02               0
GRID*               3977               0-5.943966942E+000.0000000000E+00+
*       1.1874176860E+02               0
GRID*               3978               0-5.945702479E+000.0000000000E+00+
*       1.1873191736E+02               0
GRID*               3979               0-5.947438017E+000.0000000000E+00+
*       1.1872206612E+02               0
GRID*               3980               0-5.949173554E+000.0000000000E+00+
*       1.1871221488E+02               0
GRID*               3981               0-5.950909091E+000.0000000000E+00+
*       1.1870236364E+02               0
GRID*               3982               0-5.952644628E+000.0000000000E+00+
*       1.1869251240E+02               0
GRID*               3983               0-5.954380165E+000.0000000000E+00+
*       1.1868266116E+02               0
GRID*               3984               0-5.956115702E+000.0000000000E+00+
*       1.1867280992E+02               0
GRID*               3985               0-5.957851240E+000.0000000000E+00+
*       1.1866295868E+02               0
GRID*               3986               0-5.959586777E+000.0000000000E+00+
*       1.1865310744E+02               0
GRID*               3987               0-5.961322314E+000.0000000000E+00+
*       1.1864325620E+02               0
GRID*               3988               0-5.963057851E+000.0000000000E+00+
*       1.1863340496E+02               0
GRID*               3989               0-5.964793388E+000.0000000000E+00+
*       1.1862355372E+02               0
GRID*               3990               0-5.966528926E+000.0000000000E+00+
*       1.1861370248E+02               0
GRID*               3991               0-5.968264463E+000.0000000000E+00+
*       1.1860385124E+02               0
GRID*               3992               0-5.970000000E+000.0000000000E+00+
*       1.1859400000E+02               0
GRID*               3993               0-5.971735537E+000.0000000000E+00+
*       1.1858414876E+02               0
GRID*               3994               0-5.973471074E+000.0000000000E+00+
*       1.1857429752E+02               0
GRID*               3995               0-5.975206612E+000.0000000000E+00+
*       1.1856444628E+02               0
GRID*               3996               0-5.976942149E+000.0000000000E+00+
*       1.1855459504E+02               0
GRID*               3997               0-5.978677686E+000.0000000000E+00+
*       1.1854474380E+02               0
GRID*               3998               0-5.980413223E+000.0000000000E+00+
*       1.1853489256E+02               0
GRID*               3999               0-5.982148760E+000.0000000000E+00+
*       1.1852504132E+02               0
GRID*               4000               0-5.983884298E+000.0000000000E+00+
*       1.1851519008E+02               0
GRID*               4001               0-5.985619835E+000.0000000000E+00+
*       1.1850533884E+02               0
GRID*               4002               0-5.987355372E+000.0000000000E+00+
*       1.1849548760E+02               0
GRID*               4003               0-5.989090909E+000.0000000000E+00+
*       1.1848563636E+02               0
GRID*               4004               0-5.990826446E+000.0000000000E+00+
*       1.1847578512E+02               0
GRID*               4005               0-5.992561983E+000.0000000000E+00+
*       1.1846593388E+02               0
GRID*               4006               0-5.994297521E+000.0000000000E+00+
*       1.1845608264E+02               0
GRID*               4007               0-5.996033058E+000.0000000000E+00+
*       1.1844623140E+02               0
GRID*               4008               0-5.997768595E+000.0000000000E+00+
*       1.1843638017E+02               0
GRID*               4009               0-5.999504132E+000.0000000000E+00+
*       1.1842652893E+02               0
GRID*               4010               0-6.001239669E+000.0000000000E+00+
*       1.1841667769E+02               0
GRID*               4011               0-6.002975207E+000.0000000000E+00+
*       1.1840682645E+02               0
GRID*               4012               0-6.004710744E+000.0000000000E+00+
*       1.1839697521E+02               0
GRID*               4013               0-6.006446281E+000.0000000000E+00+
*       1.1838712397E+02               0
GRID*               4014               0-6.008181818E+000.0000000000E+00+
*       1.1837727273E+02               0
GRID*               4015               0-6.009917355E+000.0000000000E+00+
*       1.1836742149E+02               0
GRID*               4016               0-6.011652893E+000.0000000000E+00+
*       1.1835757025E+02               0
GRID*               4017               0-6.013388430E+000.0000000000E+00+
*       1.1834771901E+02               0
GRID*               4018               0-6.015123967E+000.0000000000E+00+
*       1.1833786777E+02               0
GRID*               4019               0-6.016859504E+000.0000000000E+00+
*       1.1832801653E+02               0
GRID*               4020               0-6.018595041E+000.0000000000E+00+
*       1.1831816529E+02               0
GRID*               4021               0-6.020330579E+000.0000000000E+00+
*       1.1830831405E+02               0
GRID*               4022               0-6.022066116E+000.0000000000E+00+
*       1.1829846281E+02               0
GRID*               4023               0-6.023801653E+000.0000000000E+00+
*       1.1828861157E+02               0
GRID*               4024               0-6.025537190E+000.0000000000E+00+
*       1.1827876033E+02               0
GRID*               4025               0-6.027272727E+000.0000000000E+00+
*       1.1826890909E+02               0
GRID*               4026               0-6.029008264E+000.0000000000E+00+
*       1.1825905785E+02               0
GRID*               4027               0-6.030743802E+000.0000000000E+00+
*       1.1824920661E+02               0
GRID*               4028               0-6.032479339E+000.0000000000E+00+
*       1.1823935537E+02               0
GRID*               4029               0-6.034214876E+000.0000000000E+00+
*       1.1822950413E+02               0
GRID*               4030               0-6.035950413E+000.0000000000E+00+
*       1.1821965289E+02               0
GRID*               4031               0-6.037685950E+000.0000000000E+00+
*       1.1820980165E+02               0
GRID*               4032               0-6.039421488E+000.0000000000E+00+
*       1.1819995041E+02               0
GRID*               4033               0-6.041157025E+000.0000000000E+00+
*       1.1819009917E+02               0
GRID*               4034               0-6.042892562E+000.0000000000E+00+
*       1.1818024793E+02               0
GRID*               4035               0-6.044628099E+000.0000000000E+00+
*       1.1817039669E+02               0
GRID*               4036               0-6.046363636E+000.0000000000E+00+
*       1.1816054545E+02               0
GRID*               4037               0-6.048099174E+000.0000000000E+00+
*       1.1815069421E+02               0
GRID*               4038               0-6.049834711E+000.0000000000E+00+
*       1.1814084298E+02               0
GRID*               4039               0-6.051570248E+000.0000000000E+00+
*       1.1813099174E+02               0
GRID*               4040               0-6.053305785E+000.0000000000E+00+
*       1.1812114050E+02               0
GRID*               4041               0-6.055041322E+000.0000000000E+00+
*       1.1811128926E+02               0
GRID*               4042               0-6.056776860E+000.0000000000E+00+
*       1.1810143802E+02               0
GRID*               4043               0-6.058512397E+000.0000000000E+00+
*       1.1809158678E+02               0
GRID*               4044               0-6.060247934E+000.0000000000E+00+
*       1.1808173554E+02               0
GRID*               4045               0-6.061983471E+000.0000000000E+00+
*       1.1807188430E+02               0
GRID*               4046               0-6.063719008E+000.0000000000E+00+
*       1.1806203306E+02               0
GRID*               4047               0-6.065454545E+000.0000000000E+00+
*       1.1805218182E+02               0
GRID*               4048               0-6.067190083E+000.0000000000E+00+
*       1.1804233058E+02               0
GRID*               4049               0-6.068925620E+000.0000000000E+00+
*       1.1803247934E+02               0
GRID*               4050               0-6.070661157E+000.0000000000E+00+
*       1.1802262810E+02               0
GRID*               4051               0-6.072396694E+000.0000000000E+00+
*       1.1801277686E+02               0
GRID*               4052               0-6.074132231E+000.0000000000E+00+
*       1.1800292562E+02               0
GRID*               4053               0-6.075867769E+000.0000000000E+00+
*       1.1799307438E+02               0
GRID*               4054               0-6.077603306E+000.0000000000E+00+
*       1.1798322314E+02               0
GRID*               4055               0-6.079338843E+000.0000000000E+00+
*       1.1797337190E+02               0
GRID*               4056               0-6.081074380E+000.0000000000E+00+
*       1.1796352066E+02               0
GRID*               4057               0-6.082809917E+000.0000000000E+00+
*       1.1795366942E+02               0
GRID*               4058               0-6.084545455E+000.0000000000E+00+
*       1.1794381818E+02               0
GRID*               4059               0-6.086280992E+000.0000000000E+00+
*       1.1793396694E+02               0
GRID*               4060               0-6.088016529E+000.0000000000E+00+
*       1.1792411570E+02               0
GRID*               4061               0-6.089752066E+000.0000000000E+00+
*       1.1791426446E+02               0
GRID*               4062               0-6.091487603E+000.0000000000E+00+
*       1.1790441322E+02               0
GRID*               4063               0-6.093223140E+000.0000000000E+00+
*       1.1789456198E+02               0
GRID*               4064               0-6.094958678E+000.0000000000E+00+
*       1.1788471074E+02               0
GRID*               4065               0-6.096694215E+000.0000000000E+00+
*       1.1787485950E+02               0
GRID*               4066               0-6.098429752E+000.0000000000E+00+
*       1.1786500826E+02               0
GRID*               4067               0-6.100165289E+000.0000000000E+00+
*       1.1785515702E+02               0
GRID*               4068               0-6.101900826E+000.0000000000E+00+
*       1.1784530579E+02               0
GRID*               4069               0-6.103636364E+000.0000000000E+00+
*       1.1783545455E+02               0
GRID*               4070               0-6.105371901E+000.0000000000E+00+
*       1.1782560331E+02               0
GRID*               4071               0-6.107107438E+000.0000000000E+00+
*       1.1781575207E+02               0
GRID*               4072               0-6.108842975E+000.0000000000E+00+
*       1.1780590083E+02               0
GRID*               4073               0-6.110578512E+000.0000000000E+00+
*       1.1779604959E+02               0
GRID*               4074               0-6.112314050E+000.0000000000E+00+
*       1.1778619835E+02               0
GRID*               4075               0-6.114049587E+000.0000000000E+00+
*       1.1777634711E+02               0
GRID*               4076               0-6.115785124E+000.0000000000E+00+
*       1.1776649587E+02               0
GRID*               4077               0-6.117520661E+000.0000000000E+00+
*       1.1775664463E+02               0
GRID*               4078               0-6.119256198E+000.0000000000E+00+
*       1.1774679339E+02               0
GRID*               4079               0-6.120991736E+000.0000000000E+00+
*       1.1773694215E+02               0
GRID*               4080               0-6.122727273E+000.0000000000E+00+
*       1.1772709091E+02               0
GRID*               4081               0-6.124462810E+000.0000000000E+00+
*       1.1771723967E+02               0
GRID*               4082               0-6.126198347E+000.0000000000E+00+
*       1.1770738843E+02               0
GRID*               4083               0-6.127933884E+000.0000000000E+00+
*       1.1769753719E+02               0
GRID*               4084               0-6.129669421E+000.0000000000E+00+
*       1.1768768595E+02               0
GRID*               4085               0-6.131404959E+000.0000000000E+00+
*       1.1767783471E+02               0
GRID*               4086               0-6.133140496E+000.0000000000E+00+
*       1.1766798347E+02               0
GRID*               4087               0-6.134876033E+000.0000000000E+00+
*       1.1765813223E+02               0
GRID*               4088               0-6.136611570E+000.0000000000E+00+
*       1.1764828099E+02               0
GRID*               4089               0-6.138347107E+000.0000000000E+00+
*       1.1763842975E+02               0
GRID*               4090               0-6.140082645E+000.0000000000E+00+
*       1.1762857851E+02               0
GRID*               4091               0-6.141818182E+000.0000000000E+00+
*       1.1761872727E+02               0
GRID*               4092               0-6.143553719E+000.0000000000E+00+
*       1.1760887603E+02               0
GRID*               4093               0-6.145289256E+000.0000000000E+00+
*       1.1759902479E+02               0
GRID*               4094               0-6.147024793E+000.0000000000E+00+
*       1.1758917355E+02               0
GRID*               4095               0-6.148760331E+000.0000000000E+00+
*       1.1757932231E+02               0
GRID*               4096               0-6.150495868E+000.0000000000E+00+
*       1.1756947107E+02               0
GRID*               4097               0-6.152231405E+000.0000000000E+00+
*       1.1755961983E+02               0
GRID*               4098               0-6.153966942E+000.0000000000E+00+
*       1.1754976860E+02               0
GRID*               4099               0-6.155702479E+000.0000000000E+00+
*       1.1753991736E+02               0
GRID*               4100               0-6.157438017E+000.0000000000E+00+
*       1.1753006612E+02               0
GRID*               4101               0-6.159173554E+000.0000000000E+00+
*       1.1752021488E+02               0
GRID*               4102               0-6.160909091E+000.0000000000E+00+
*       1.1751036364E+02               0
GRID*               4103               0-6.162644628E+000.0000000000E+00+
*       1.1750051240E+02               0
GRID*               4104               0-6.164380165E+000.0000000000E+00+
*       1.1749066116E+02               0
GRID*               4105               0-6.166115702E+000.0000000000E+00+
*       1.1748080992E+02               0
GRID*               4106               0-6.167851240E+000.0000000000E+00+
*       1.1747095868E+02               0
GRID*               4107               0-6.169586777E+000.0000000000E+00+
*       1.1746110744E+02               0
GRID*               4108               0-6.171322314E+000.0000000000E+00+
*       1.1745125620E+02               0
GRID*               4109               0-6.173057851E+000.0000000000E+00+
*       1.1744140496E+02               0
GRID*               4110               0-6.174793388E+000.0000000000E+00+
*       1.1743155372E+02               0
GRID*               4111               0-6.176528926E+000.0000000000E+00+
*       1.1742170248E+02               0
GRID*               4112               0-6.178264463E+000.0000000000E+00+
*       1.1741185124E+02               0
GRID*               4113               0-6.180000000E+000.0000000000E+00+
*       1.1740200000E+02               0
GRID*               4114               0-6.181735537E+000.0000000000E+00+
*       1.1739214876E+02               0
GRID*               4115               0-6.183471074E+000.0000000000E+00+
*       1.1738229752E+02               0
GRID*               4116               0-6.185206612E+000.0000000000E+00+
*       1.1737244628E+02               0
GRID*               4117               0-6.186942149E+000.0000000000E+00+
*       1.1736259504E+02               0
GRID*               4118               0-6.188677686E+000.0000000000E+00+
*       1.1735274380E+02               0
GRID*               4119               0-6.190413223E+000.0000000000E+00+
*       1.1734289256E+02               0
GRID*               4120               0-6.192148760E+000.0000000000E+00+
*       1.1733304132E+02               0
GRID*               4121               0-6.193884298E+000.0000000000E+00+
*       1.1732319008E+02               0
GRID*               4122               0-6.195619835E+000.0000000000E+00+
*       1.1731333884E+02               0
GRID*               4123               0-6.197355372E+000.0000000000E+00+
*       1.1730348760E+02               0
GRID*               4124               0-6.199090909E+000.0000000000E+00+
*       1.1729363636E+02               0
GRID*               4125               0-6.200826446E+000.0000000000E+00+
*       1.1728378512E+02               0
GRID*               4126               0-6.202561983E+000.0000000000E+00+
*       1.1727393388E+02               0
GRID*               4127               0-6.204297521E+000.0000000000E+00+
*       1.1726408264E+02               0
GRID*               4128               0-6.206033058E+000.0000000000E+00+
*       1.1725423140E+02               0
GRID*               4129               0-6.207768595E+000.0000000000E+00+
*       1.1724438017E+02               0
GRID*               4130               0-6.209504132E+000.0000000000E+00+
*       1.1723452893E+02               0
GRID*               4131               0-6.211239669E+000.0000000000E+00+
*       1.1722467769E+02               0
GRID*               4132               0-6.212975207E+000.0000000000E+00+
*       1.1721482645E+02               0
GRID*               4133               0-6.214710744E+000.0000000000E+00+
*       1.1720497521E+02               0
GRID*               4134               0-6.216446281E+000.0000000000E+00+
*       1.1719512397E+02               0
GRID*               4135               0-6.218181818E+000.0000000000E+00+
*       1.1718527273E+02               0
GRID*               4136               0-6.219917355E+000.0000000000E+00+
*       1.1717542149E+02               0
GRID*               4137               0-6.221652893E+000.0000000000E+00+
*       1.1716557025E+02               0
GRID*               4138               0-6.223388430E+000.0000000000E+00+
*       1.1715571901E+02               0
GRID*               4139               0-6.225123967E+000.0000000000E+00+
*       1.1714586777E+02               0
GRID*               4140               0-6.226859504E+000.0000000000E+00+
*       1.1713601653E+02               0
GRID*               4141               0-6.228595041E+000.0000000000E+00+
*       1.1712616529E+02               0
GRID*               4142               0-6.230330579E+000.0000000000E+00+
*       1.1711631405E+02               0
GRID*               4143               0-6.232066116E+000.0000000000E+00+
*       1.1710646281E+02               0
GRID*               4144               0-6.233801653E+000.0000000000E+00+
*       1.1709661157E+02               0
GRID*               4145               0-6.235537190E+000.0000000000E+00+
*       1.1708676033E+02               0
GRID*               4146               0-6.237272727E+000.0000000000E+00+
*       1.1707690909E+02               0
GRID*               4147               0-6.239008264E+000.0000000000E+00+
*       1.1706705785E+02               0
GRID*               4148               0-6.240743802E+000.0000000000E+00+
*       1.1705720661E+02               0
GRID*               4149               0-6.242479339E+000.0000000000E+00+
*       1.1704735537E+02               0
GRID*               4150               0-6.244214876E+000.0000000000E+00+
*       1.1703750413E+02               0
GRID*               4151               0-6.245950413E+000.0000000000E+00+
*       1.1702765289E+02               0
GRID*               4152               0-6.247685950E+000.0000000000E+00+
*       1.1701780165E+02               0
GRID*               4153               0-6.249421488E+000.0000000000E+00+
*       1.1700795041E+02               0
GRID*               4154               0-6.251157025E+000.0000000000E+00+
*       1.1699809917E+02               0
GRID*               4155               0-6.252892562E+000.0000000000E+00+
*       1.1698824793E+02               0
GRID*               4156               0-6.254628099E+000.0000000000E+00+
*       1.1697839669E+02               0
GRID*               4157               0-6.256363636E+000.0000000000E+00+
*       1.1696854545E+02               0
GRID*               4158               0-6.258099174E+000.0000000000E+00+
*       1.1695869421E+02               0
GRID*               4159               0-6.259834711E+000.0000000000E+00+
*       1.1694884298E+02               0
GRID*               4160               0-6.261570248E+000.0000000000E+00+
*       1.1693899174E+02               0
GRID*               4161               0-6.263305785E+000.0000000000E+00+
*       1.1692914050E+02               0
GRID*               4162               0-6.265041322E+000.0000000000E+00+
*       1.1691928926E+02               0
GRID*               4163               0-6.266776860E+000.0000000000E+00+
*       1.1690943802E+02               0
GRID*               4164               0-6.268512397E+000.0000000000E+00+
*       1.1689958678E+02               0
GRID*               4165               0-6.270247934E+000.0000000000E+00+
*       1.1688973554E+02               0
GRID*               4166               0-6.271983471E+000.0000000000E+00+
*       1.1687988430E+02               0
GRID*               4167               0-6.273719008E+000.0000000000E+00+
*       1.1687003306E+02               0
GRID*               4168               0-6.275454545E+000.0000000000E+00+
*       1.1686018182E+02               0
GRID*               4169               0-6.277190083E+000.0000000000E+00+
*       1.1685033058E+02               0
GRID*               4170               0-6.278925620E+000.0000000000E+00+
*       1.1684047934E+02               0
GRID*               4171               0-6.280661157E+000.0000000000E+00+
*       1.1683062810E+02               0
GRID*               4172               0-6.282396694E+000.0000000000E+00+
*       1.1682077686E+02               0
GRID*               4173               0-6.284132231E+000.0000000000E+00+
*       1.1681092562E+02               0
GRID*               4174               0-6.285867769E+000.0000000000E+00+
*       1.1680107438E+02               0
GRID*               4175               0-6.287603306E+000.0000000000E+00+
*       1.1679122314E+02               0
GRID*               4176               0-6.289338843E+000.0000000000E+00+
*       1.1678137190E+02               0
GRID*               4177               0-6.291074380E+000.0000000000E+00+
*       1.1677152066E+02               0
GRID*               4178               0-6.292809917E+000.0000000000E+00+
*       1.1676166942E+02               0
GRID*               4179               0-6.294545455E+000.0000000000E+00+
*       1.1675181818E+02               0
GRID*               4180               0-6.296280992E+000.0000000000E+00+
*       1.1674196694E+02               0
GRID*               4181               0-6.298016529E+000.0000000000E+00+
*       1.1673211570E+02               0
GRID*               4182               0-6.299752066E+000.0000000000E+00+
*       1.1672226446E+02               0
GRID*               4183               0-6.301487603E+000.0000000000E+00+
*       1.1671241322E+02               0
GRID*               4184               0-6.303223140E+000.0000000000E+00+
*       1.1670256198E+02               0
GRID*               4185               0-6.304958678E+000.0000000000E+00+
*       1.1669271074E+02               0
GRID*               4186               0-6.306694215E+000.0000000000E+00+
*       1.1668285950E+02               0
GRID*               4187               0-6.308429752E+000.0000000000E+00+
*       1.1667300826E+02               0
GRID*               4188               0-6.310165289E+000.0000000000E+00+
*       1.1666315702E+02               0
GRID*               4189               0-6.311900826E+000.0000000000E+00+
*       1.1665330579E+02               0
GRID*               4190               0-6.313636364E+000.0000000000E+00+
*       1.1664345455E+02               0
GRID*               4191               0-6.315371901E+000.0000000000E+00+
*       1.1663360331E+02               0
GRID*               4192               0-6.317107438E+000.0000000000E+00+
*       1.1662375207E+02               0
GRID*               4193               0-6.318842975E+000.0000000000E+00+
*       1.1661390083E+02               0
GRID*               4194               0-6.320578512E+000.0000000000E+00+
*       1.1660404959E+02               0
GRID*               4195               0-6.322314050E+000.0000000000E+00+
*       1.1659419835E+02               0
GRID*               4196               0-6.324049587E+000.0000000000E+00+
*       1.1658434711E+02               0
GRID*               4197               0-6.325785124E+000.0000000000E+00+
*       1.1657449587E+02               0
GRID*               4198               0-6.327520661E+000.0000000000E+00+
*       1.1656464463E+02               0
GRID*               4199               0-6.329256198E+000.0000000000E+00+
*       1.1655479339E+02               0
GRID*               4200               0-6.330991736E+000.0000000000E+00+
*       1.1654494215E+02               0
GRID*               4201               0-6.332727273E+000.0000000000E+00+
*       1.1653509091E+02               0
GRID*               4202               0-6.334462810E+000.0000000000E+00+
*       1.1652523967E+02               0
GRID*               4203               0-6.336198347E+000.0000000000E+00+
*       1.1651538843E+02               0
GRID*               4204               0-6.337933884E+000.0000000000E+00+
*       1.1650553719E+02               0
GRID*               4205               0-6.339669421E+000.0000000000E+00+
*       1.1649568595E+02               0
GRID*               4206               0-6.341404959E+000.0000000000E+00+
*       1.1648583471E+02               0
GRID*               4207               0-6.343140496E+000.0000000000E+00+
*       1.1647598347E+02               0
GRID*               4208               0-6.344876033E+000.0000000000E+00+
*       1.1646613223E+02               0
GRID*               4209               0-6.346611570E+000.0000000000E+00+
*       1.1645628099E+02               0
GRID*               4210               0-6.348347107E+000.0000000000E+00+
*       1.1644642975E+02               0
GRID*               4211               0-6.350082645E+000.0000000000E+00+
*       1.1643657851E+02               0
GRID*               4212               0-6.351818182E+000.0000000000E+00+
*       1.1642672727E+02               0
GRID*               4213               0-6.353553719E+000.0000000000E+00+
*       1.1641687603E+02               0
GRID*               4214               0-6.355289256E+000.0000000000E+00+
*       1.1640702479E+02               0
GRID*               4215               0-6.357024793E+000.0000000000E+00+
*       1.1639717355E+02               0
GRID*               4216               0-6.358760331E+000.0000000000E+00+
*       1.1638732231E+02               0
GRID*               4217               0-6.360495868E+000.0000000000E+00+
*       1.1637747107E+02               0
GRID*               4218               0-6.362231405E+000.0000000000E+00+
*       1.1636761983E+02               0
GRID*               4219               0-6.363966942E+000.0000000000E+00+
*       1.1635776860E+02               0
GRID*               4220               0-6.365702479E+000.0000000000E+00+
*       1.1634791736E+02               0
GRID*               4221               0-6.367438017E+000.0000000000E+00+
*       1.1633806612E+02               0
GRID*               4222               0-6.369173554E+000.0000000000E+00+
*       1.1632821488E+02               0
GRID*               4223               0-6.370909091E+000.0000000000E+00+
*       1.1631836364E+02               0
GRID*               4224               0-6.372644628E+000.0000000000E+00+
*       1.1630851240E+02               0
GRID*               4225               0-6.374380165E+000.0000000000E+00+
*       1.1629866116E+02               0
GRID*               4226               0-6.376115702E+000.0000000000E+00+
*       1.1628880992E+02               0
GRID*               4227               0-6.377851240E+000.0000000000E+00+
*       1.1627895868E+02               0
GRID*               4228               0-6.379586777E+000.0000000000E+00+
*       1.1626910744E+02               0
GRID*               4229               0-6.381322314E+000.0000000000E+00+
*       1.1625925620E+02               0
GRID*               4230               0-6.383057851E+000.0000000000E+00+
*       1.1624940496E+02               0
GRID*               4231               0-6.384793388E+000.0000000000E+00+
*       1.1623955372E+02               0
GRID*               4232               0-6.386528926E+000.0000000000E+00+
*       1.1622970248E+02               0
GRID*               4233               0-6.388264463E+000.0000000000E+00+
*       1.1621985124E+02               0
GRID*               4234               0-6.390000000E+000.0000000000E+00+
*       1.1621000000E+02               0
GRID*               4235               0-6.391735537E+000.0000000000E+00+
*       1.1620014876E+02               0
GRID*               4236               0-6.393471074E+000.0000000000E+00+
*       1.1619029752E+02               0
GRID*               4237               0-6.395206612E+000.0000000000E+00+
*       1.1618044628E+02               0
GRID*               4238               0-6.396942149E+000.0000000000E+00+
*       1.1617059504E+02               0
GRID*               4239               0-6.398677686E+000.0000000000E+00+
*       1.1616074380E+02               0
GRID*               4240               0-6.400413223E+000.0000000000E+00+
*       1.1615089256E+02               0
GRID*               4241               0-6.402148760E+000.0000000000E+00+
*       1.1614104132E+02               0
GRID*               4242               0-6.403884298E+000.0000000000E+00+
*       1.1613119008E+02               0
GRID*               4243               0-6.405619835E+000.0000000000E+00+
*       1.1612133884E+02               0
GRID*               4244               0-6.407355372E+000.0000000000E+00+
*       1.1611148760E+02               0
GRID*               4245               0-6.409090909E+000.0000000000E+00+
*       1.1610163636E+02               0
GRID*               4246               0-6.410826446E+000.0000000000E+00+
*       1.1609178512E+02               0
GRID*               4247               0-6.412561983E+000.0000000000E+00+
*       1.1608193388E+02               0
GRID*               4248               0-6.414297521E+000.0000000000E+00+
*       1.1607208264E+02               0
GRID*               4249               0-6.416033058E+000.0000000000E+00+
*       1.1606223140E+02               0
GRID*               4250               0-6.417768595E+000.0000000000E+00+
*       1.1605238017E+02               0
GRID*               4251               0-6.419504132E+000.0000000000E+00+
*       1.1604252893E+02               0
GRID*               4252               0-6.421239669E+000.0000000000E+00+
*       1.1603267769E+02               0
GRID*               4253               0-6.422975207E+000.0000000000E+00+
*       1.1602282645E+02               0
GRID*               4254               0-6.424710744E+000.0000000000E+00+
*       1.1601297521E+02               0
GRID*               4255               0-6.426446281E+000.0000000000E+00+
*       1.1600312397E+02               0
GRID*               4256               0-6.428181818E+000.0000000000E+00+
*       1.1599327273E+02               0
GRID*               4257               0-6.429917355E+000.0000000000E+00+
*       1.1598342149E+02               0
GRID*               4258               0-6.431652893E+000.0000000000E+00+
*       1.1597357025E+02               0
GRID*               4259               0-6.433388430E+000.0000000000E+00+
*       1.1596371901E+02               0
GRID*               4260               0-6.435123967E+000.0000000000E+00+
*       1.1595386777E+02               0
GRID*               4261               0-6.436859504E+000.0000000000E+00+
*       1.1594401653E+02               0
GRID*               4262               0-6.438595041E+000.0000000000E+00+
*       1.1593416529E+02               0
GRID*               4263               0-6.440330579E+000.0000000000E+00+
*       1.1592431405E+02               0
GRID*               4264               0-6.442066116E+000.0000000000E+00+
*       1.1591446281E+02               0
GRID*               4265               0-6.443801653E+000.0000000000E+00+
*       1.1590461157E+02               0
GRID*               4266               0-6.445537190E+000.0000000000E+00+
*       1.1589476033E+02               0
GRID*               4267               0-6.447272727E+000.0000000000E+00+
*       1.1588490909E+02               0
GRID*               4268               0-6.449008264E+000.0000000000E+00+
*       1.1587505785E+02               0
GRID*               4269               0-6.450743802E+000.0000000000E+00+
*       1.1586520661E+02               0
GRID*               4270               0-6.452479339E+000.0000000000E+00+
*       1.1585535537E+02               0
GRID*               4271               0-6.454214876E+000.0000000000E+00+
*       1.1584550413E+02               0
GRID*               4272               0-6.455950413E+000.0000000000E+00+
*       1.1583565289E+02               0
GRID*               4273               0-6.457685950E+000.0000000000E+00+
*       1.1582580165E+02               0
GRID*               4274               0-6.459421488E+000.0000000000E+00+
*       1.1581595041E+02               0
GRID*               4275               0-6.461157025E+000.0000000000E+00+
*       1.1580609917E+02               0
GRID*               4276               0-6.462892562E+000.0000000000E+00+
*       1.1579624793E+02               0
GRID*               4277               0-6.464628099E+000.0000000000E+00+
*       1.1578639669E+02               0
GRID*               4278               0-6.466363636E+000.0000000000E+00+
*       1.1577654545E+02               0
GRID*               4279               0-6.468099174E+000.0000000000E+00+
*       1.1576669421E+02               0
GRID*               4280               0-6.469834711E+000.0000000000E+00+
*       1.1575684298E+02               0
GRID*               4281               0-6.471570248E+000.0000000000E+00+
*       1.1574699174E+02               0
GRID*               4282               0-6.473305785E+000.0000000000E+00+
*       1.1573714050E+02               0
GRID*               4283               0-6.475041322E+000.0000000000E+00+
*       1.1572728926E+02               0
GRID*               4284               0-6.476776860E+000.0000000000E+00+
*       1.1571743802E+02               0
GRID*               4285               0-6.478512397E+000.0000000000E+00+
*       1.1570758678E+02               0
GRID*               4286               0-6.480247934E+000.0000000000E+00+
*       1.1569773554E+02               0
GRID*               4287               0-6.481983471E+000.0000000000E+00+
*       1.1568788430E+02               0
GRID*               4288               0-6.483719008E+000.0000000000E+00+
*       1.1567803306E+02               0
GRID*               4289               0-6.485454545E+000.0000000000E+00+
*       1.1566818182E+02               0
GRID*               4290               0-6.487190083E+000.0000000000E+00+
*       1.1565833058E+02               0
GRID*               4291               0-6.488925620E+000.0000000000E+00+
*       1.1564847934E+02               0
GRID*               4292               0-6.490661157E+000.0000000000E+00+
*       1.1563862810E+02               0
GRID*               4293               0-6.492396694E+000.0000000000E+00+
*       1.1562877686E+02               0
GRID*               4294               0-6.494132231E+000.0000000000E+00+
*       1.1561892562E+02               0
GRID*               4295               0-6.495867769E+000.0000000000E+00+
*       1.1560907438E+02               0
GRID*               4296               0-6.497603306E+000.0000000000E+00+
*       1.1559922314E+02               0
GRID*               4297               0-6.499338843E+000.0000000000E+00+
*       1.1558937190E+02               0
GRID*               4298               0-6.501074380E+000.0000000000E+00+
*       1.1557952066E+02               0
GRID*               4299               0-6.502809917E+000.0000000000E+00+
*       1.1556966942E+02               0
GRID*               4300               0-6.504545455E+000.0000000000E+00+
*       1.1555981818E+02               0
GRID*               4301               0-6.506280992E+000.0000000000E+00+
*       1.1554996694E+02               0
GRID*               4302               0-6.508016529E+000.0000000000E+00+
*       1.1554011570E+02               0
GRID*               4303               0-6.509752066E+000.0000000000E+00+
*       1.1553026446E+02               0
GRID*               4304               0-6.511487603E+000.0000000000E+00+
*       1.1552041322E+02               0
GRID*               4305               0-6.513223140E+000.0000000000E+00+
*       1.1551056198E+02               0
GRID*               4306               0-6.514958678E+000.0000000000E+00+
*       1.1550071074E+02               0
GRID*               4307               0-6.516694215E+000.0000000000E+00+
*       1.1549085950E+02               0
GRID*               4308               0-6.518429752E+000.0000000000E+00+
*       1.1548100826E+02               0
GRID*               4309               0-6.520165289E+000.0000000000E+00+
*       1.1547115702E+02               0
GRID*               4310               0-6.521900826E+000.0000000000E+00+
*       1.1546130579E+02               0
GRID*               4311               0-6.523636364E+000.0000000000E+00+
*       1.1545145455E+02               0
GRID*               4312               0-6.525371901E+000.0000000000E+00+
*       1.1544160331E+02               0
GRID*               4313               0-6.527107438E+000.0000000000E+00+
*       1.1543175207E+02               0
GRID*               4314               0-6.528842975E+000.0000000000E+00+
*       1.1542190083E+02               0
GRID*               4315               0-6.530578512E+000.0000000000E+00+
*       1.1541204959E+02               0
GRID*               4316               0-6.532314050E+000.0000000000E+00+
*       1.1540219835E+02               0
GRID*               4317               0-6.534049587E+000.0000000000E+00+
*       1.1539234711E+02               0
GRID*               4318               0-6.535785124E+000.0000000000E+00+
*       1.1538249587E+02               0
GRID*               4319               0-6.537520661E+000.0000000000E+00+
*       1.1537264463E+02               0
GRID*               4320               0-6.539256198E+000.0000000000E+00+
*       1.1536279339E+02               0
GRID*               4321               0-6.540991736E+000.0000000000E+00+
*       1.1535294215E+02               0
GRID*               4322               0-6.542727273E+000.0000000000E+00+
*       1.1534309091E+02               0
GRID*               4323               0-6.544462810E+000.0000000000E+00+
*       1.1533323967E+02               0
GRID*               4324               0-6.546198347E+000.0000000000E+00+
*       1.1532338843E+02               0
GRID*               4325               0-6.547933884E+000.0000000000E+00+
*       1.1531353719E+02               0
GRID*               4326               0-6.549669421E+000.0000000000E+00+
*       1.1530368595E+02               0
GRID*               4327               0-6.551404959E+000.0000000000E+00+
*       1.1529383471E+02               0
GRID*               4328               0-6.553140496E+000.0000000000E+00+
*       1.1528398347E+02               0
GRID*               4329               0-6.554876033E+000.0000000000E+00+
*       1.1527413223E+02               0
GRID*               4330               0-6.556611570E+000.0000000000E+00+
*       1.1526428099E+02               0
GRID*               4331               0-6.558347107E+000.0000000000E+00+
*       1.1525442975E+02               0
GRID*               4332               0-6.560082645E+000.0000000000E+00+
*       1.1524457851E+02               0
GRID*               4333               0-6.561818182E+000.0000000000E+00+
*       1.1523472727E+02               0
GRID*               4334               0-6.563553719E+000.0000000000E+00+
*       1.1522487603E+02               0
GRID*               4335               0-6.565289256E+000.0000000000E+00+
*       1.1521502479E+02               0
GRID*               4336               0-6.567024793E+000.0000000000E+00+
*       1.1520517355E+02               0
GRID*               4337               0-6.568760331E+000.0000000000E+00+
*       1.1519532231E+02               0
GRID*               4338               0-6.570495868E+000.0000000000E+00+
*       1.1518547107E+02               0
GRID*               4339               0-6.572231405E+000.0000000000E+00+
*       1.1517561983E+02               0
GRID*               4340               0-6.573966942E+000.0000000000E+00+
*       1.1516576860E+02               0
GRID*               4341               0-6.575702479E+000.0000000000E+00+
*       1.1515591736E+02               0
GRID*               4342               0-6.577438017E+000.0000000000E+00+
*       1.1514606612E+02               0
GRID*               4343               0-6.579173554E+000.0000000000E+00+
*       1.1513621488E+02               0
GRID*               4344               0-6.580909091E+000.0000000000E+00+
*       1.1512636364E+02               0
GRID*               4345               0-6.582644628E+000.0000000000E+00+
*       1.1511651240E+02               0
GRID*               4346               0-6.584380165E+000.0000000000E+00+
*       1.1510666116E+02               0
GRID*               4347               0-6.586115702E+000.0000000000E+00+
*       1.1509680992E+02               0
GRID*               4348               0-6.587851240E+000.0000000000E+00+
*       1.1508695868E+02               0
GRID*               4349               0-6.589586777E+000.0000000000E+00+
*       1.1507710744E+02               0
GRID*               4350               0-6.591322314E+000.0000000000E+00+
*       1.1506725620E+02               0
GRID*               4351               0-6.593057851E+000.0000000000E+00+
*       1.1505740496E+02               0
GRID*               4352               0-6.594793388E+000.0000000000E+00+
*       1.1504755372E+02               0
GRID*               4353               0-6.596528926E+000.0000000000E+00+
*       1.1503770248E+02               0
GRID*               4354               0-6.598264463E+000.0000000000E+00+
*       1.1502785124E+02               0
GRID*               4355               0-6.600000000E+000.0000000000E+00+
*       1.1501800000E+02               0
GRID*               4356               0-6.601735537E+000.0000000000E+00+
*       1.1500814876E+02               0
GRID*               4357               0-6.603471074E+000.0000000000E+00+
*       1.1499829752E+02               0
GRID*               4358               0-6.605206612E+000.0000000000E+00+
*       1.1498844628E+02               0
GRID*               4359               0-6.606942149E+000.0000000000E+00+
*       1.1497859504E+02               0
GRID*               4360               0-6.608677686E+000.0000000000E+00+
*       1.1496874380E+02               0
GRID*               4361               0-6.610413223E+000.0000000000E+00+
*       1.1495889256E+02               0
GRID*               4362               0-6.612148760E+000.0000000000E+00+
*       1.1494904132E+02               0
GRID*               4363               0-6.613884298E+000.0000000000E+00+
*       1.1493919008E+02               0
GRID*               4364               0-6.615619835E+000.0000000000E+00+
*       1.1492933884E+02               0
GRID*               4365               0-6.617355372E+000.0000000000E+00+
*       1.1491948760E+02               0
GRID*               4366               0-6.619090909E+000.0000000000E+00+
*       1.1490963636E+02               0
GRID*               4367               0-6.620826446E+000.0000000000E+00+
*       1.1489978512E+02               0
GRID*               4368               0-6.622561983E+000.0000000000E+00+
*       1.1488993388E+02               0
GRID*               4369               0-6.624297521E+000.0000000000E+00+
*       1.1488008264E+02               0
GRID*               4370               0-6.626033058E+000.0000000000E+00+
*       1.1487023140E+02               0
GRID*               4371               0-6.627768595E+000.0000000000E+00+
*       1.1486038017E+02               0
GRID*               4372               0-6.629504132E+000.0000000000E+00+
*       1.1485052893E+02               0
GRID*               4373               0-6.631239669E+000.0000000000E+00+
*       1.1484067769E+02               0
GRID*               4374               0-6.632975207E+000.0000000000E+00+
*       1.1483082645E+02               0
GRID*               4375               0-6.634710744E+000.0000000000E+00+
*       1.1482097521E+02               0
GRID*               4376               0-6.636446281E+000.0000000000E+00+
*       1.1481112397E+02               0
GRID*               4377               0-6.638181818E+000.0000000000E+00+
*       1.1480127273E+02               0
GRID*               4378               0-6.639917355E+000.0000000000E+00+
*       1.1479142149E+02               0
GRID*               4379               0-6.641652893E+000.0000000000E+00+
*       1.1478157025E+02               0
GRID*               4380               0-6.643388430E+000.0000000000E+00+
*       1.1477171901E+02               0
GRID*               4381               0-6.645123967E+000.0000000000E+00+
*       1.1476186777E+02               0
GRID*               4382               0-6.646859504E+000.0000000000E+00+
*       1.1475201653E+02               0
GRID*               4383               0-6.648595041E+000.0000000000E+00+
*       1.1474216529E+02               0
GRID*               4384               0-6.650330579E+000.0000000000E+00+
*       1.1473231405E+02               0
GRID*               4385               0-6.652066116E+000.0000000000E+00+
*       1.1472246281E+02               0
GRID*               4386               0-6.653801653E+000.0000000000E+00+
*       1.1471261157E+02               0
GRID*               4387               0-6.655537190E+000.0000000000E+00+
*       1.1470276033E+02               0
GRID*               4388               0-6.657272727E+000.0000000000E+00+
*       1.1469290909E+02               0
GRID*               4389               0-6.659008264E+000.0000000000E+00+
*       1.1468305785E+02               0
GRID*               4390               0-6.660743802E+000.0000000000E+00+
*       1.1467320661E+02               0
GRID*               4391               0-6.662479339E+000.0000000000E+00+
*       1.1466335537E+02               0
GRID*               4392               0-6.664214876E+000.0000000000E+00+
*       1.1465350413E+02               0
GRID*               4393               0-6.665950413E+000.0000000000E+00+
*       1.1464365289E+02               0
GRID*               4394               0-6.667685950E+000.0000000000E+00+
*       1.1463380165E+02               0
GRID*               4395               0-6.669421488E+000.0000000000E+00+
*       1.1462395041E+02               0
GRID*               4396               0-6.671157025E+000.0000000000E+00+
*       1.1461409917E+02               0
GRID*               4397               0-6.672892562E+000.0000000000E+00+
*       1.1460424793E+02               0
GRID*               4398               0-6.674628099E+000.0000000000E+00+
*       1.1459439669E+02               0
GRID*               4399               0-6.676363636E+000.0000000000E+00+
*       1.1458454545E+02               0
GRID*               4400               0-6.678099174E+000.0000000000E+00+
*       1.1457469421E+02               0
GRID*               4401               0-6.679834711E+000.0000000000E+00+
*       1.1456484298E+02               0
GRID*               4402               0-6.681570248E+000.0000000000E+00+
*       1.1455499174E+02               0
GRID*               4403               0-6.683305785E+000.0000000000E+00+
*       1.1454514050E+02               0
GRID*               4404               0-6.685041322E+000.0000000000E+00+
*       1.1453528926E+02               0
GRID*               4405               0-6.686776860E+000.0000000000E+00+
*       1.1452543802E+02               0
GRID*               4406               0-6.688512397E+000.0000000000E+00+
*       1.1451558678E+02               0
GRID*               4407               0-6.690247934E+000.0000000000E+00+
*       1.1450573554E+02               0
GRID*               4408               0-6.691983471E+000.0000000000E+00+
*       1.1449588430E+02               0
GRID*               4409               0-6.693719008E+000.0000000000E+00+
*       1.1448603306E+02               0
GRID*               4410               0-6.695454545E+000.0000000000E+00+
*       1.1447618182E+02               0
GRID*               4411               0-6.697190083E+000.0000000000E+00+
*       1.1446633058E+02               0
GRID*               4412               0-6.698925620E+000.0000000000E+00+
*       1.1445647934E+02               0
GRID*               4413               0-6.700661157E+000.0000000000E+00+
*       1.1444662810E+02               0
GRID*               4414               0-6.702396694E+000.0000000000E+00+
*       1.1443677686E+02               0
GRID*               4415               0-6.704132231E+000.0000000000E+00+
*       1.1442692562E+02               0
GRID*               4416               0-6.705867769E+000.0000000000E+00+
*       1.1441707438E+02               0
GRID*               4417               0-6.707603306E+000.0000000000E+00+
*       1.1440722314E+02               0
GRID*               4418               0-6.709338843E+000.0000000000E+00+
*       1.1439737190E+02               0
GRID*               4419               0-6.711074380E+000.0000000000E+00+
*       1.1438752066E+02               0
GRID*               4420               0-6.712809917E+000.0000000000E+00+
*       1.1437766942E+02               0
GRID*               4421               0-6.714545455E+000.0000000000E+00+
*       1.1436781818E+02               0
GRID*               4422               0-6.716280992E+000.0000000000E+00+
*       1.1435796694E+02               0
GRID*               4423               0-6.718016529E+000.0000000000E+00+
*       1.1434811570E+02               0
GRID*               4424               0-6.719752066E+000.0000000000E+00+
*       1.1433826446E+02               0
GRID*               4425               0-6.721487603E+000.0000000000E+00+
*       1.1432841322E+02               0
GRID*               4426               0-6.723223140E+000.0000000000E+00+
*       1.1431856198E+02               0
GRID*               4427               0-6.724958678E+000.0000000000E+00+
*       1.1430871074E+02               0
GRID*               4428               0-6.726694215E+000.0000000000E+00+
*       1.1429885950E+02               0
GRID*               4429               0-6.728429752E+000.0000000000E+00+
*       1.1428900826E+02               0
GRID*               4430               0-6.730165289E+000.0000000000E+00+
*       1.1427915702E+02               0
GRID*               4431               0-6.731900826E+000.0000000000E+00+
*       1.1426930579E+02               0
GRID*               4432               0-6.733636364E+000.0000000000E+00+
*       1.1425945455E+02               0
GRID*               4433               0-6.735371901E+000.0000000000E+00+
*       1.1424960331E+02               0
GRID*               4434               0-6.737107438E+000.0000000000E+00+
*       1.1423975207E+02               0
GRID*               4435               0-6.738842975E+000.0000000000E+00+
*       1.1422990083E+02               0
GRID*               4436               0-6.740578512E+000.0000000000E+00+
*       1.1422004959E+02               0
GRID*               4437               0-6.742314050E+000.0000000000E+00+
*       1.1421019835E+02               0
GRID*               4438               0-6.744049587E+000.0000000000E+00+
*       1.1420034711E+02               0
GRID*               4439               0-6.745785124E+000.0000000000E+00+
*       1.1419049587E+02               0
GRID*               4440               0-6.747520661E+000.0000000000E+00+
*       1.1418064463E+02               0
GRID*               4441               0-6.749256198E+000.0000000000E+00+
*       1.1417079339E+02               0
GRID*               4442               0-6.750991736E+000.0000000000E+00+
*       1.1416094215E+02               0
GRID*               4443               0-6.752727273E+000.0000000000E+00+
*       1.1415109091E+02               0
GRID*               4444               0-6.754462810E+000.0000000000E+00+
*       1.1414123967E+02               0
GRID*               4445               0-6.756198347E+000.0000000000E+00+
*       1.1413138843E+02               0
GRID*               4446               0-6.757933884E+000.0000000000E+00+
*       1.1412153719E+02               0
GRID*               4447               0-6.759669421E+000.0000000000E+00+
*       1.1411168595E+02               0
GRID*               4448               0-6.761404959E+000.0000000000E+00+
*       1.1410183471E+02               0
GRID*               4449               0-6.763140496E+000.0000000000E+00+
*       1.1409198347E+02               0
GRID*               4450               0-6.764876033E+000.0000000000E+00+
*       1.1408213223E+02               0
GRID*               4451               0-6.766611570E+000.0000000000E+00+
*       1.1407228099E+02               0
GRID*               4452               0-6.768347107E+000.0000000000E+00+
*       1.1406242975E+02               0
GRID*               4453               0-6.770082645E+000.0000000000E+00+
*       1.1405257851E+02               0
GRID*               4454               0-6.771818182E+000.0000000000E+00+
*       1.1404272727E+02               0
GRID*               4455               0-6.773553719E+000.0000000000E+00+
*       1.1403287603E+02               0
GRID*               4456               0-6.775289256E+000.0000000000E+00+
*       1.1402302479E+02               0
GRID*               4457               0-6.777024793E+000.0000000000E+00+
*       1.1401317355E+02               0
GRID*               4458               0-6.778760331E+000.0000000000E+00+
*       1.1400332231E+02               0
GRID*               4459               0-6.780495868E+000.0000000000E+00+
*       1.1399347107E+02               0
GRID*               4460               0-6.782231405E+000.0000000000E+00+
*       1.1398361983E+02               0
GRID*               4461               0-6.783966942E+000.0000000000E+00+
*       1.1397376860E+02               0
GRID*               4462               0-6.785702479E+000.0000000000E+00+
*       1.1396391736E+02               0
GRID*               4463               0-6.787438017E+000.0000000000E+00+
*       1.1395406612E+02               0
GRID*               4464               0-6.789173554E+000.0000000000E+00+
*       1.1394421488E+02               0
GRID*               4465               0-6.790909091E+000.0000000000E+00+
*       1.1393436364E+02               0
GRID*               4466               0-6.792644628E+000.0000000000E+00+
*       1.1392451240E+02               0
GRID*               4467               0-6.794380165E+000.0000000000E+00+
*       1.1391466116E+02               0
GRID*               4468               0-6.796115702E+000.0000000000E+00+
*       1.1390480992E+02               0
GRID*               4469               0-6.797851240E+000.0000000000E+00+
*       1.1389495868E+02               0
GRID*               4470               0-6.799586777E+000.0000000000E+00+
*       1.1388510744E+02               0
GRID*               4471               0-6.801322314E+000.0000000000E+00+
*       1.1387525620E+02               0
GRID*               4472               0-6.803057851E+000.0000000000E+00+
*       1.1386540496E+02               0
GRID*               4473               0-6.804793388E+000.0000000000E+00+
*       1.1385555372E+02               0
GRID*               4474               0-6.806528926E+000.0000000000E+00+
*       1.1384570248E+02               0
GRID*               4475               0-6.808264463E+000.0000000000E+00+
*       1.1383585124E+02               0
GRID*               4476               0-6.810000000E+000.0000000000E+00+
*       1.1382600000E+02               0
GRID*               4477               0-6.811735537E+000.0000000000E+00+
*       1.1381614876E+02               0
GRID*               4478               0-6.813471074E+000.0000000000E+00+
*       1.1380629752E+02               0
GRID*               4479               0-6.815206612E+000.0000000000E+00+
*       1.1379644628E+02               0
GRID*               4480               0-6.816942149E+000.0000000000E+00+
*       1.1378659504E+02               0
GRID*               4481               0-6.818677686E+000.0000000000E+00+
*       1.1377674380E+02               0
GRID*               4482               0-6.820413223E+000.0000000000E+00+
*       1.1376689256E+02               0
GRID*               4483               0-6.822148760E+000.0000000000E+00+
*       1.1375704132E+02               0
GRID*               4484               0-6.823884298E+000.0000000000E+00+
*       1.1374719008E+02               0
GRID*               4485               0-6.825619835E+000.0000000000E+00+
*       1.1373733884E+02               0
GRID*               4486               0-6.827355372E+000.0000000000E+00+
*       1.1372748760E+02               0
GRID*               4487               0-6.829090909E+000.0000000000E+00+
*       1.1371763636E+02               0
GRID*               4488               0-6.830826446E+000.0000000000E+00+
*       1.1370778512E+02               0
GRID*               4489               0-6.832561983E+000.0000000000E+00+
*       1.1369793388E+02               0
GRID*               4490               0-6.834297521E+000.0000000000E+00+
*       1.1368808264E+02               0
GRID*               4491               0-6.836033058E+000.0000000000E+00+
*       1.1367823140E+02               0
GRID*               4492               0-6.837768595E+000.0000000000E+00+
*       1.1366838017E+02               0
GRID*               4493               0-6.839504132E+000.0000000000E+00+
*       1.1365852893E+02               0
GRID*               4494               0-6.841239669E+000.0000000000E+00+
*       1.1364867769E+02               0
GRID*               4495               0-6.842975207E+000.0000000000E+00+
*       1.1363882645E+02               0
GRID*               4496               0-6.844710744E+000.0000000000E+00+
*       1.1362897521E+02               0
GRID*               4497               0-6.846446281E+000.0000000000E+00+
*       1.1361912397E+02               0
GRID*               4498               0-6.848181818E+000.0000000000E+00+
*       1.1360927273E+02               0
GRID*               4499               0-6.849917355E+000.0000000000E+00+
*       1.1359942149E+02               0
GRID*               4500               0-6.851652893E+000.0000000000E+00+
*       1.1358957025E+02               0
GRID*               4501               0-6.853388430E+000.0000000000E+00+
*       1.1357971901E+02               0
GRID*               4502               0-6.855123967E+000.0000000000E+00+
*       1.1356986777E+02               0
GRID*               4503               0-6.856859504E+000.0000000000E+00+
*       1.1356001653E+02               0
GRID*               4504               0-6.858595041E+000.0000000000E+00+
*       1.1355016529E+02               0
GRID*               4505               0-6.860330579E+000.0000000000E+00+
*       1.1354031405E+02               0
GRID*               4506               0-6.862066116E+000.0000000000E+00+
*       1.1353046281E+02               0
GRID*               4507               0-6.863801653E+000.0000000000E+00+
*       1.1352061157E+02               0
GRID*               4508               0-6.865537190E+000.0000000000E+00+
*       1.1351076033E+02               0
GRID*               4509               0-6.867272727E+000.0000000000E+00+
*       1.1350090909E+02               0
GRID*               4510               0-6.869008264E+000.0000000000E+00+
*       1.1349105785E+02               0
GRID*               4511               0-6.870743802E+000.0000000000E+00+
*       1.1348120661E+02               0
GRID*               4512               0-6.872479339E+000.0000000000E+00+
*       1.1347135537E+02               0
GRID*               4513               0-6.874214876E+000.0000000000E+00+
*       1.1346150413E+02               0
GRID*               4514               0-6.875950413E+000.0000000000E+00+
*       1.1345165289E+02               0
GRID*               4515               0-6.877685950E+000.0000000000E+00+
*       1.1344180165E+02               0
GRID*               4516               0-6.879421488E+000.0000000000E+00+
*       1.1343195041E+02               0
GRID*               4517               0-6.881157025E+000.0000000000E+00+
*       1.1342209917E+02               0
GRID*               4518               0-6.882892562E+000.0000000000E+00+
*       1.1341224793E+02               0
GRID*               4519               0-6.884628099E+000.0000000000E+00+
*       1.1340239669E+02               0
GRID*               4520               0-6.886363636E+000.0000000000E+00+
*       1.1339254545E+02               0
GRID*               4521               0-6.888099174E+000.0000000000E+00+
*       1.1338269421E+02               0
GRID*               4522               0-6.889834711E+000.0000000000E+00+
*       1.1337284298E+02               0
GRID*               4523               0-6.891570248E+000.0000000000E+00+
*       1.1336299174E+02               0
GRID*               4524               0-6.893305785E+000.0000000000E+00+
*       1.1335314050E+02               0
GRID*               4525               0-6.895041322E+000.0000000000E+00+
*       1.1334328926E+02               0
GRID*               4526               0-6.896776860E+000.0000000000E+00+
*       1.1333343802E+02               0
GRID*               4527               0-6.898512397E+000.0000000000E+00+
*       1.1332358678E+02               0
GRID*               4528               0-6.900247934E+000.0000000000E+00+
*       1.1331373554E+02               0
GRID*               4529               0-6.901983471E+000.0000000000E+00+
*       1.1330388430E+02               0
GRID*               4530               0-6.903719008E+000.0000000000E+00+
*       1.1329403306E+02               0
GRID*               4531               0-6.905454545E+000.0000000000E+00+
*       1.1328418182E+02               0
GRID*               4532               0-6.907190083E+000.0000000000E+00+
*       1.1327433058E+02               0
GRID*               4533               0-6.908925620E+000.0000000000E+00+
*       1.1326447934E+02               0
GRID*               4534               0-6.910661157E+000.0000000000E+00+
*       1.1325462810E+02               0
GRID*               4535               0-6.912396694E+000.0000000000E+00+
*       1.1324477686E+02               0
GRID*               4536               0-6.914132231E+000.0000000000E+00+
*       1.1323492562E+02               0
GRID*               4537               0-6.915867769E+000.0000000000E+00+
*       1.1322507438E+02               0
GRID*               4538               0-6.917603306E+000.0000000000E+00+
*       1.1321522314E+02               0
GRID*               4539               0-6.919338843E+000.0000000000E+00+
*       1.1320537190E+02               0
GRID*               4540               0-6.921074380E+000.0000000000E+00+
*       1.1319552066E+02               0
GRID*               4541               0-6.922809917E+000.0000000000E+00+
*       1.1318566942E+02               0
GRID*               4542               0-6.924545455E+000.0000000000E+00+
*       1.1317581818E+02               0
GRID*               4543               0-6.926280992E+000.0000000000E+00+
*       1.1316596694E+02               0
GRID*               4544               0-6.928016529E+000.0000000000E+00+
*       1.1315611570E+02               0
GRID*               4545               0-6.929752066E+000.0000000000E+00+
*       1.1314626446E+02               0
GRID*               4546               0-6.931487603E+000.0000000000E+00+
*       1.1313641322E+02               0
GRID*               4547               0-6.933223140E+000.0000000000E+00+
*       1.1312656198E+02               0
GRID*               4548               0-6.934958678E+000.0000000000E+00+
*       1.1311671074E+02               0
GRID*               4549               0-6.936694215E+000.0000000000E+00+
*       1.1310685950E+02               0
GRID*               4550               0-6.938429752E+000.0000000000E+00+
*       1.1309700826E+02               0
GRID*               4551               0-6.940165289E+000.0000000000E+00+
*       1.1308715702E+02               0
GRID*               4552               0-6.941900826E+000.0000000000E+00+
*       1.1307730579E+02               0
GRID*               4553               0-6.943636364E+000.0000000000E+00+
*       1.1306745455E+02               0
GRID*               4554               0-6.945371901E+000.0000000000E+00+
*       1.1305760331E+02               0
GRID*               4555               0-6.947107438E+000.0000000000E+00+
*       1.1304775207E+02               0
GRID*               4556               0-6.948842975E+000.0000000000E+00+
*       1.1303790083E+02               0
GRID*               4557               0-6.950578512E+000.0000000000E+00+
*       1.1302804959E+02               0
GRID*               4558               0-6.952314050E+000.0000000000E+00+
*       1.1301819835E+02               0
GRID*               4559               0-6.954049587E+000.0000000000E+00+
*       1.1300834711E+02               0
GRID*               4560               0-6.955785124E+000.0000000000E+00+
*       1.1299849587E+02               0
GRID*               4561               0-6.957520661E+000.0000000000E+00+
*       1.1298864463E+02               0
GRID*               4562               0-6.959256198E+000.0000000000E+00+
*       1.1297879339E+02               0
GRID*               4563               0-6.960991736E+000.0000000000E+00+
*       1.1296894215E+02               0
GRID*               4564               0-6.962727273E+000.0000000000E+00+
*       1.1295909091E+02               0
GRID*               4565               0-6.964462810E+000.0000000000E+00+
*       1.1294923967E+02               0
GRID*               4566               0-6.966198347E+000.0000000000E+00+
*       1.1293938843E+02               0
GRID*               4567               0-6.967933884E+000.0000000000E+00+
*       1.1292953719E+02               0
GRID*               4568               0-6.969669421E+000.0000000000E+00+
*       1.1291968595E+02               0
GRID*               4569               0-6.971404959E+000.0000000000E+00+
*       1.1290983471E+02               0
GRID*               4570               0-6.973140496E+000.0000000000E+00+
*       1.1289998347E+02               0
GRID*               4571               0-6.974876033E+000.0000000000E+00+
*       1.1289013223E+02               0
GRID*               4572               0-6.976611570E+000.0000000000E+00+
*       1.1288028099E+02               0
GRID*               4573               0-6.978347107E+000.0000000000E+00+
*       1.1287042975E+02               0
GRID*               4574               0-6.980082645E+000.0000000000E+00+
*       1.1286057851E+02               0
GRID*               4575               0-6.981818182E+000.0000000000E+00+
*       1.1285072727E+02               0
GRID*               4576               0-6.983553719E+000.0000000000E+00+
*       1.1284087603E+02               0
GRID*               4577               0-6.985289256E+000.0000000000E+00+
*       1.1283102479E+02               0
GRID*               4578               0-6.987024793E+000.0000000000E+00+
*       1.1282117355E+02               0
GRID*               4579               0-6.988760331E+000.0000000000E+00+
*       1.1281132231E+02               0
GRID*               4580               0-6.990495868E+000.0000000000E+00+
*       1.1280147107E+02               0
GRID*               4581               0-6.992231405E+000.0000000000E+00+
*       1.1279161983E+02               0
GRID*               4582               0-6.993966942E+000.0000000000E+00+
*       1.1278176860E+02               0
GRID*               4583               0-6.995702479E+000.0000000000E+00+
*       1.1277191736E+02               0
GRID*               4584               0-6.997438017E+000.0000000000E+00+
*       1.1276206612E+02               0
GRID*               4585               0-6.999173554E+000.0000000000E+00+
*       1.1275221488E+02               0
GRID*               4586               0-7.000909091E+000.0000000000E+00+
*       1.1274236364E+02               0
GRID*               4587               0-7.002644628E+000.0000000000E+00+
*       1.1273251240E+02               0
GRID*               4588               0-7.004380165E+000.0000000000E+00+
*       1.1272266116E+02               0
GRID*               4589               0-7.006115702E+000.0000000000E+00+
*       1.1271280992E+02               0
GRID*               4590               0-7.007851240E+000.0000000000E+00+
*       1.1270295868E+02               0
GRID*               4591               0-7.009586777E+000.0000000000E+00+
*       1.1269310744E+02               0
GRID*               4592               0-7.011322314E+000.0000000000E+00+
*       1.1268325620E+02               0
GRID*               4593               0-7.013057851E+000.0000000000E+00+
*       1.1267340496E+02               0
GRID*               4594               0-7.014793388E+000.0000000000E+00+
*       1.1266355372E+02               0
GRID*               4595               0-7.016528926E+000.0000000000E+00+
*       1.1265370248E+02               0
GRID*               4596               0-7.018264463E+000.0000000000E+00+
*       1.1264385124E+02               0
GRID*               4597               0-7.020000000E+000.0000000000E+00+
*       1.1263400000E+02               0
GRID*               4598               0-7.021735537E+000.0000000000E+00+
*       1.1262414876E+02               0
GRID*               4599               0-7.023471074E+000.0000000000E+00+
*       1.1261429752E+02               0
GRID*               4600               0-7.025206612E+000.0000000000E+00+
*       1.1260444628E+02               0
GRID*               4601               0-7.026942149E+000.0000000000E+00+
*       1.1259459504E+02               0
GRID*               4602               0-7.028677686E+000.0000000000E+00+
*       1.1258474380E+02               0
GRID*               4603               0-7.030413223E+000.0000000000E+00+
*       1.1257489256E+02               0
GRID*               4604               0-7.032148760E+000.0000000000E+00+
*       1.1256504132E+02               0
GRID*               4605               0-7.033884298E+000.0000000000E+00+
*       1.1255519008E+02               0
GRID*               4606               0-7.035619835E+000.0000000000E+00+
*       1.1254533884E+02               0
GRID*               4607               0-7.037355372E+000.0000000000E+00+
*       1.1253548760E+02               0
GRID*               4608               0-7.039090909E+000.0000000000E+00+
*       1.1252563636E+02               0
GRID*               4609               0-7.040826446E+000.0000000000E+00+
*       1.1251578512E+02               0
GRID*               4610               0-7.042561983E+000.0000000000E+00+
*       1.1250593388E+02               0
GRID*               4611               0-7.044297521E+000.0000000000E+00+
*       1.1249608264E+02               0
GRID*               4612               0-7.046033058E+000.0000000000E+00+
*       1.1248623140E+02               0
GRID*               4613               0-7.047768595E+000.0000000000E+00+
*       1.1247638017E+02               0
GRID*               4614               0-7.049504132E+000.0000000000E+00+
*       1.1246652893E+02               0
GRID*               4615               0-7.051239669E+000.0000000000E+00+
*       1.1245667769E+02               0
GRID*               4616               0-7.052975207E+000.0000000000E+00+
*       1.1244682645E+02               0
GRID*               4617               0-7.054710744E+000.0000000000E+00+
*       1.1243697521E+02               0
GRID*               4618               0-7.056446281E+000.0000000000E+00+
*       1.1242712397E+02               0
GRID*               4619               0-7.058181818E+000.0000000000E+00+
*       1.1241727273E+02               0
GRID*               4620               0-7.059917355E+000.0000000000E+00+
*       1.1240742149E+02               0
GRID*               4621               0-7.061652893E+000.0000000000E+00+
*       1.1239757025E+02               0
GRID*               4622               0-7.063388430E+000.0000000000E+00+
*       1.1238771901E+02               0
GRID*               4623               0-7.065123967E+000.0000000000E+00+
*       1.1237786777E+02               0
GRID*               4624               0-7.066859504E+000.0000000000E+00+
*       1.1236801653E+02               0
GRID*               4625               0-7.068595041E+000.0000000000E+00+
*       1.1235816529E+02               0
GRID*               4626               0-7.070330579E+000.0000000000E+00+
*       1.1234831405E+02               0
GRID*               4627               0-7.072066116E+000.0000000000E+00+
*       1.1233846281E+02               0
GRID*               4628               0-7.073801653E+000.0000000000E+00+
*       1.1232861157E+02               0
GRID*               4629               0-7.075537190E+000.0000000000E+00+
*       1.1231876033E+02               0
GRID*               4630               0-7.077272727E+000.0000000000E+00+
*       1.1230890909E+02               0
GRID*               4631               0-7.079008264E+000.0000000000E+00+
*       1.1229905785E+02               0
GRID*               4632               0-7.080743802E+000.0000000000E+00+
*       1.1228920661E+02               0
GRID*               4633               0-7.082479339E+000.0000000000E+00+
*       1.1227935537E+02               0
GRID*               4634               0-7.084214876E+000.0000000000E+00+
*       1.1226950413E+02               0
GRID*               4635               0-7.085950413E+000.0000000000E+00+
*       1.1225965289E+02               0
GRID*               4636               0-7.087685950E+000.0000000000E+00+
*       1.1224980165E+02               0
GRID*               4637               0-7.089421488E+000.0000000000E+00+
*       1.1223995041E+02               0
GRID*               4638               0-7.091157025E+000.0000000000E+00+
*       1.1223009917E+02               0
GRID*               4639               0-7.092892562E+000.0000000000E+00+
*       1.1222024793E+02               0
GRID*               4640               0-7.094628099E+000.0000000000E+00+
*       1.1221039669E+02               0
GRID*               4641               0-7.096363636E+000.0000000000E+00+
*       1.1220054545E+02               0
GRID*               4642               0-7.098099174E+000.0000000000E+00+
*       1.1219069421E+02               0
GRID*               4643               0-7.099834711E+000.0000000000E+00+
*       1.1218084298E+02               0
GRID*               4644               0-7.101570248E+000.0000000000E+00+
*       1.1217099174E+02               0
GRID*               4645               0-7.103305785E+000.0000000000E+00+
*       1.1216114050E+02               0
GRID*               4646               0-7.105041322E+000.0000000000E+00+
*       1.1215128926E+02               0
GRID*               4647               0-7.106776860E+000.0000000000E+00+
*       1.1214143802E+02               0
GRID*               4648               0-7.108512397E+000.0000000000E+00+
*       1.1213158678E+02               0
GRID*               4649               0-7.110247934E+000.0000000000E+00+
*       1.1212173554E+02               0
GRID*               4650               0-7.111983471E+000.0000000000E+00+
*       1.1211188430E+02               0
GRID*               4651               0-7.113719008E+000.0000000000E+00+
*       1.1210203306E+02               0
GRID*               4652               0-7.115454545E+000.0000000000E+00+
*       1.1209218182E+02               0
GRID*               4653               0-7.117190083E+000.0000000000E+00+
*       1.1208233058E+02               0
GRID*               4654               0-7.118925620E+000.0000000000E+00+
*       1.1207247934E+02               0
GRID*               4655               0-7.120661157E+000.0000000000E+00+
*       1.1206262810E+02               0
GRID*               4656               0-7.122396694E+000.0000000000E+00+
*       1.1205277686E+02               0
GRID*               4657               0-7.124132231E+000.0000000000E+00+
*       1.1204292562E+02               0
GRID*               4658               0-7.125867769E+000.0000000000E+00+
*       1.1203307438E+02               0
GRID*               4659               0-7.127603306E+000.0000000000E+00+
*       1.1202322314E+02               0
GRID*               4660               0-7.129338843E+000.0000000000E+00+
*       1.1201337190E+02               0
GRID*               4661               0-7.131074380E+000.0000000000E+00+
*       1.1200352066E+02               0
GRID*               4662               0-7.132809917E+000.0000000000E+00+
*       1.1199366942E+02               0
GRID*               4663               0-7.134545455E+000.0000000000E+00+
*       1.1198381818E+02               0
GRID*               4664               0-7.136280992E+000.0000000000E+00+
*       1.1197396694E+02               0
GRID*               4665               0-7.138016529E+000.0000000000E+00+
*       1.1196411570E+02               0
GRID*               4666               0-7.139752066E+000.0000000000E+00+
*       1.1195426446E+02               0
GRID*               4667               0-7.141487603E+000.0000000000E+00+
*       1.1194441322E+02               0
GRID*               4668               0-7.143223140E+000.0000000000E+00+
*       1.1193456198E+02               0
GRID*               4669               0-7.144958678E+000.0000000000E+00+
*       1.1192471074E+02               0
GRID*               4670               0-7.146694215E+000.0000000000E+00+
*       1.1191485950E+02               0
GRID*               4671               0-7.148429752E+000.0000000000E+00+
*       1.1190500826E+02               0
GRID*               4672               0-7.150165289E+000.0000000000E+00+
*       1.1189515702E+02               0
GRID*               4673               0-7.151900826E+000.0000000000E+00+
*       1.1188530579E+02               0
GRID*               4674               0-7.153636364E+000.0000000000E+00+
*       1.1187545455E+02               0
GRID*               4675               0-7.155371901E+000.0000000000E+00+
*       1.1186560331E+02               0
GRID*               4676               0-7.157107438E+000.0000000000E+00+
*       1.1185575207E+02               0
GRID*               4677               0-7.158842975E+000.0000000000E+00+
*       1.1184590083E+02               0
GRID*               4678               0-7.160578512E+000.0000000000E+00+
*       1.1183604959E+02               0
GRID*               4679               0-7.162314050E+000.0000000000E+00+
*       1.1182619835E+02               0
GRID*               4680               0-7.164049587E+000.0000000000E+00+
*       1.1181634711E+02               0
GRID*               4681               0-7.165785124E+000.0000000000E+00+
*       1.1180649587E+02               0
GRID*               4682               0-7.167520661E+000.0000000000E+00+
*       1.1179664463E+02               0
GRID*               4683               0-7.169256198E+000.0000000000E+00+
*       1.1178679339E+02               0
GRID*               4684               0-7.170991736E+000.0000000000E+00+
*       1.1177694215E+02               0
GRID*               4685               0-7.172727273E+000.0000000000E+00+
*       1.1176709091E+02               0
GRID*               4686               0-7.174462810E+000.0000000000E+00+
*       1.1175723967E+02               0
GRID*               4687               0-7.176198347E+000.0000000000E+00+
*       1.1174738843E+02               0
GRID*               4688               0-7.177933884E+000.0000000000E+00+
*       1.1173753719E+02               0
GRID*               4689               0-7.179669421E+000.0000000000E+00+
*       1.1172768595E+02               0
GRID*               4690               0-7.181404959E+000.0000000000E+00+
*       1.1171783471E+02               0
GRID*               4691               0-7.183140496E+000.0000000000E+00+
*       1.1170798347E+02               0
GRID*               4692               0-7.184876033E+000.0000000000E+00+
*       1.1169813223E+02               0
GRID*               4693               0-7.186611570E+000.0000000000E+00+
*       1.1168828099E+02               0
GRID*               4694               0-7.188347107E+000.0000000000E+00+
*       1.1167842975E+02               0
GRID*               4695               0-7.190082645E+000.0000000000E+00+
*       1.1166857851E+02               0
GRID*               4696               0-7.191818182E+000.0000000000E+00+
*       1.1165872727E+02               0
GRID*               4697               0-7.193553719E+000.0000000000E+00+
*       1.1164887603E+02               0
GRID*               4698               0-7.195289256E+000.0000000000E+00+
*       1.1163902479E+02               0
GRID*               4699               0-7.197024793E+000.0000000000E+00+
*       1.1162917355E+02               0
GRID*               4700               0-7.198760331E+000.0000000000E+00+
*       1.1161932231E+02               0
GRID*               4701               0-7.200495868E+000.0000000000E+00+
*       1.1160947107E+02               0
GRID*               4702               0-7.202231405E+000.0000000000E+00+
*       1.1159961983E+02               0
GRID*               4703               0-7.203966942E+000.0000000000E+00+
*       1.1158976860E+02               0
GRID*               4704               0-7.205702479E+000.0000000000E+00+
*       1.1157991736E+02               0
GRID*               4705               0-7.207438017E+000.0000000000E+00+
*       1.1157006612E+02               0
GRID*               4706               0-7.209173554E+000.0000000000E+00+
*       1.1156021488E+02               0
GRID*               4707               0-7.210909091E+000.0000000000E+00+
*       1.1155036364E+02               0
GRID*               4708               0-7.212644628E+000.0000000000E+00+
*       1.1154051240E+02               0
GRID*               4709               0-7.214380165E+000.0000000000E+00+
*       1.1153066116E+02               0
GRID*               4710               0-7.216115702E+000.0000000000E+00+
*       1.1152080992E+02               0
GRID*               4711               0-7.217851240E+000.0000000000E+00+
*       1.1151095868E+02               0
GRID*               4712               0-7.219586777E+000.0000000000E+00+
*       1.1150110744E+02               0
GRID*               4713               0-7.221322314E+000.0000000000E+00+
*       1.1149125620E+02               0
GRID*               4714               0-7.223057851E+000.0000000000E+00+
*       1.1148140496E+02               0
GRID*               4715               0-7.224793388E+000.0000000000E+00+
*       1.1147155372E+02               0
GRID*               4716               0-7.226528926E+000.0000000000E+00+
*       1.1146170248E+02               0
GRID*               4717               0-7.228264463E+000.0000000000E+00+
*       1.1145185124E+02               0
GRID*               4718               0-7.230000000E+000.0000000000E+00+
*       1.1144200000E+02               0
GRID*               4719               0-7.231735537E+000.0000000000E+00+
*       1.1143214876E+02               0
GRID*               4720               0-7.233471074E+000.0000000000E+00+
*       1.1142229752E+02               0
GRID*               4721               0-7.235206612E+000.0000000000E+00+
*       1.1141244628E+02               0
GRID*               4722               0-7.236942149E+000.0000000000E+00+
*       1.1140259504E+02               0
GRID*               4723               0-7.238677686E+000.0000000000E+00+
*       1.1139274380E+02               0
GRID*               4724               0-7.240413223E+000.0000000000E+00+
*       1.1138289256E+02               0
GRID*               4725               0-7.242148760E+000.0000000000E+00+
*       1.1137304132E+02               0
GRID*               4726               0-7.243884298E+000.0000000000E+00+
*       1.1136319008E+02               0
GRID*               4727               0-7.245619835E+000.0000000000E+00+
*       1.1135333884E+02               0
GRID*               4728               0-7.247355372E+000.0000000000E+00+
*       1.1134348760E+02               0
GRID*               4729               0-7.249090909E+000.0000000000E+00+
*       1.1133363636E+02               0
GRID*               4730               0-7.250826446E+000.0000000000E+00+
*       1.1132378512E+02               0
GRID*               4731               0-7.252561983E+000.0000000000E+00+
*       1.1131393388E+02               0
GRID*               4732               0-7.254297521E+000.0000000000E+00+
*       1.1130408264E+02               0
GRID*               4733               0-7.256033058E+000.0000000000E+00+
*       1.1129423140E+02               0
GRID*               4734               0-7.257768595E+000.0000000000E+00+
*       1.1128438017E+02               0
GRID*               4735               0-7.259504132E+000.0000000000E+00+
*       1.1127452893E+02               0
GRID*               4736               0-7.261239669E+000.0000000000E+00+
*       1.1126467769E+02               0
GRID*               4737               0-7.262975207E+000.0000000000E+00+
*       1.1125482645E+02               0
GRID*               4738               0-7.264710744E+000.0000000000E+00+
*       1.1124497521E+02               0
GRID*               4739               0-7.266446281E+000.0000000000E+00+
*       1.1123512397E+02               0
GRID*               4740               0-7.268181818E+000.0000000000E+00+
*       1.1122527273E+02               0
GRID*               4741               0-7.269917355E+000.0000000000E+00+
*       1.1121542149E+02               0
GRID*               4742               0-7.271652893E+000.0000000000E+00+
*       1.1120557025E+02               0
GRID*               4743               0-7.273388430E+000.0000000000E+00+
*       1.1119571901E+02               0
GRID*               4744               0-7.275123967E+000.0000000000E+00+
*       1.1118586777E+02               0
GRID*               4745               0-7.276859504E+000.0000000000E+00+
*       1.1117601653E+02               0
GRID*               4746               0-7.278595041E+000.0000000000E+00+
*       1.1116616529E+02               0
GRID*               4747               0-7.280330579E+000.0000000000E+00+
*       1.1115631405E+02               0
GRID*               4748               0-7.282066116E+000.0000000000E+00+
*       1.1114646281E+02               0
GRID*               4749               0-7.283801653E+000.0000000000E+00+
*       1.1113661157E+02               0
GRID*               4750               0-7.285537190E+000.0000000000E+00+
*       1.1112676033E+02               0
GRID*               4751               0-7.287272727E+000.0000000000E+00+
*       1.1111690909E+02               0
GRID*               4752               0-7.289008264E+000.0000000000E+00+
*       1.1110705785E+02               0
GRID*               4753               0-7.290743802E+000.0000000000E+00+
*       1.1109720661E+02               0
GRID*               4754               0-7.292479339E+000.0000000000E+00+
*       1.1108735537E+02               0
GRID*               4755               0-7.294214876E+000.0000000000E+00+
*       1.1107750413E+02               0
GRID*               4756               0-7.295950413E+000.0000000000E+00+
*       1.1106765289E+02               0
GRID*               4757               0-7.297685950E+000.0000000000E+00+
*       1.1105780165E+02               0
GRID*               4758               0-7.299421488E+000.0000000000E+00+
*       1.1104795041E+02               0
GRID*               4759               0-7.301157025E+000.0000000000E+00+
*       1.1103809917E+02               0
GRID*               4760               0-7.302892562E+000.0000000000E+00+
*       1.1102824793E+02               0
GRID*               4761               0-7.304628099E+000.0000000000E+00+
*       1.1101839669E+02               0
GRID*               4762               0-7.306363636E+000.0000000000E+00+
*       1.1100854545E+02               0
GRID*               4763               0-7.308099174E+000.0000000000E+00+
*       1.1099869421E+02               0
GRID*               4764               0-7.309834711E+000.0000000000E+00+
*       1.1098884298E+02               0
GRID*               4765               0-7.311570248E+000.0000000000E+00+
*       1.1097899174E+02               0
GRID*               4766               0-7.313305785E+000.0000000000E+00+
*       1.1096914050E+02               0
GRID*               4767               0-7.315041322E+000.0000000000E+00+
*       1.1095928926E+02               0
GRID*               4768               0-7.316776860E+000.0000000000E+00+
*       1.1094943802E+02               0
GRID*               4769               0-7.318512397E+000.0000000000E+00+
*       1.1093958678E+02               0
GRID*               4770               0-7.320247934E+000.0000000000E+00+
*       1.1092973554E+02               0
GRID*               4771               0-7.321983471E+000.0000000000E+00+
*       1.1091988430E+02               0
GRID*               4772               0-7.323719008E+000.0000000000E+00+
*       1.1091003306E+02               0
GRID*               4773               0-7.325454545E+000.0000000000E+00+
*       1.1090018182E+02               0
GRID*               4774               0-7.327190083E+000.0000000000E+00+
*       1.1089033058E+02               0
GRID*               4775               0-7.328925620E+000.0000000000E+00+
*       1.1088047934E+02               0
GRID*               4776               0-7.330661157E+000.0000000000E+00+
*       1.1087062810E+02               0
GRID*               4777               0-7.332396694E+000.0000000000E+00+
*       1.1086077686E+02               0
GRID*               4778               0-7.334132231E+000.0000000000E+00+
*       1.1085092562E+02               0
GRID*               4779               0-7.335867769E+000.0000000000E+00+
*       1.1084107438E+02               0
GRID*               4780               0-7.337603306E+000.0000000000E+00+
*       1.1083122314E+02               0
GRID*               4781               0-7.339338843E+000.0000000000E+00+
*       1.1082137190E+02               0
GRID*               4782               0-7.341074380E+000.0000000000E+00+
*       1.1081152066E+02               0
GRID*               4783               0-7.342809917E+000.0000000000E+00+
*       1.1080166942E+02               0
GRID*               4784               0-7.344545455E+000.0000000000E+00+
*       1.1079181818E+02               0
GRID*               4785               0-7.346280992E+000.0000000000E+00+
*       1.1078196694E+02               0
GRID*               4786               0-7.348016529E+000.0000000000E+00+
*       1.1077211570E+02               0
GRID*               4787               0-7.349752066E+000.0000000000E+00+
*       1.1076226446E+02               0
GRID*               4788               0-7.351487603E+000.0000000000E+00+
*       1.1075241322E+02               0
GRID*               4789               0-7.353223140E+000.0000000000E+00+
*       1.1074256198E+02               0
GRID*               4790               0-7.354958678E+000.0000000000E+00+
*       1.1073271074E+02               0
GRID*               4791               0-7.356694215E+000.0000000000E+00+
*       1.1072285950E+02               0
GRID*               4792               0-7.358429752E+000.0000000000E+00+
*       1.1071300826E+02               0
GRID*               4793               0-7.360165289E+000.0000000000E+00+
*       1.1070315702E+02               0
GRID*               4794               0-7.361900826E+000.0000000000E+00+
*       1.1069330579E+02               0
GRID*               4795               0-7.363636364E+000.0000000000E+00+
*       1.1068345455E+02               0
GRID*               4796               0-7.365371901E+000.0000000000E+00+
*       1.1067360331E+02               0
GRID*               4797               0-7.367107438E+000.0000000000E+00+
*       1.1066375207E+02               0
GRID*               4798               0-7.368842975E+000.0000000000E+00+
*       1.1065390083E+02               0
GRID*               4799               0-7.370578512E+000.0000000000E+00+
*       1.1064404959E+02               0
GRID*               4800               0-7.372314050E+000.0000000000E+00+
*       1.1063419835E+02               0
GRID*               4801               0-7.374049587E+000.0000000000E+00+
*       1.1062434711E+02               0
GRID*               4802               0-7.375785124E+000.0000000000E+00+
*       1.1061449587E+02               0
GRID*               4803               0-7.377520661E+000.0000000000E+00+
*       1.1060464463E+02               0
GRID*               4804               0-7.379256198E+000.0000000000E+00+
*       1.1059479339E+02               0
GRID*               4805               0-7.380991736E+000.0000000000E+00+
*       1.1058494215E+02               0
GRID*               4806               0-7.382727273E+000.0000000000E+00+
*       1.1057509091E+02               0
GRID*               4807               0-7.384462810E+000.0000000000E+00+
*       1.1056523967E+02               0
GRID*               4808               0-7.386198347E+000.0000000000E+00+
*       1.1055538843E+02               0
GRID*               4809               0-7.387933884E+000.0000000000E+00+
*       1.1054553719E+02               0
GRID*               4810               0-7.389669421E+000.0000000000E+00+
*       1.1053568595E+02               0
GRID*               4811               0-7.391404959E+000.0000000000E+00+
*       1.1052583471E+02               0
GRID*               4812               0-7.393140496E+000.0000000000E+00+
*       1.1051598347E+02               0
GRID*               4813               0-7.394876033E+000.0000000000E+00+
*       1.1050613223E+02               0
GRID*               4814               0-7.396611570E+000.0000000000E+00+
*       1.1049628099E+02               0
GRID*               4815               0-7.398347107E+000.0000000000E+00+
*       1.1048642975E+02               0
GRID*               4816               0-7.400082645E+000.0000000000E+00+
*       1.1047657851E+02               0
GRID*               4817               0-7.401818182E+000.0000000000E+00+
*       1.1046672727E+02               0
GRID*               4818               0-7.403553719E+000.0000000000E+00+
*       1.1045687603E+02               0
GRID*               4819               0-7.405289256E+000.0000000000E+00+
*       1.1044702479E+02               0
GRID*               4820               0-7.407024793E+000.0000000000E+00+
*       1.1043717355E+02               0
GRID*               4821               0-7.408760331E+000.0000000000E+00+
*       1.1042732231E+02               0
GRID*               4822               0-7.410495868E+000.0000000000E+00+
*       1.1041747107E+02               0
GRID*               4823               0-7.412231405E+000.0000000000E+00+
*       1.1040761983E+02               0
GRID*               4824               0-7.413966942E+000.0000000000E+00+
*       1.1039776860E+02               0
GRID*               4825               0-7.415702479E+000.0000000000E+00+
*       1.1038791736E+02               0
GRID*               4826               0-7.417438017E+000.0000000000E+00+
*       1.1037806612E+02               0
GRID*               4827               0-7.419173554E+000.0000000000E+00+
*       1.1036821488E+02               0
GRID*               4828               0-7.420909091E+000.0000000000E+00+
*       1.1035836364E+02               0
GRID*               4829               0-7.422644628E+000.0000000000E+00+
*       1.1034851240E+02               0
GRID*               4830               0-7.424380165E+000.0000000000E+00+
*       1.1033866116E+02               0
GRID*               4831               0-7.426115702E+000.0000000000E+00+
*       1.1032880992E+02               0
GRID*               4832               0-7.427851240E+000.0000000000E+00+
*       1.1031895868E+02               0
GRID*               4833               0-7.429586777E+000.0000000000E+00+
*       1.1030910744E+02               0
GRID*               4834               0-7.431322314E+000.0000000000E+00+
*       1.1029925620E+02               0
GRID*               4835               0-7.433057851E+000.0000000000E+00+
*       1.1028940496E+02               0
GRID*               4836               0-7.434793388E+000.0000000000E+00+
*       1.1027955372E+02               0
GRID*               4837               0-7.436528926E+000.0000000000E+00+
*       1.1026970248E+02               0
GRID*               4838               0-7.438264463E+000.0000000000E+00+
*       1.1025985124E+02               0
GRID*               4839               0-7.440000000E+000.0000000000E+00+
*       1.1025000000E+02               0
GRID*               4840               01.8600000000E+000.0000000000E+00+
*       1.5826000000E+02               0
GRID*               4841               01.8579245283E+000.0000000000E+00+
*       1.5825021698E+02               0
GRID*               4842               01.8558490566E+000.0000000000E+00+
*       1.5824043396E+02               0
GRID*               4843               01.8537735849E+000.0000000000E+00+
*       1.5823065094E+02               0
GRID*               4844               01.8516981132E+000.0000000000E+00+
*       1.5822086792E+02               0
GRID*               4845               01.8496226415E+000.0000000000E+00+
*       1.5821108491E+02               0
GRID*               4846               01.8475471698E+000.0000000000E+00+
*       1.5820130189E+02               0
GRID*               4847               01.8454716981E+000.0000000000E+00+
*       1.5819151887E+02               0
GRID*               4848               01.8433962264E+000.0000000000E+00+
*       1.5818173585E+02               0
GRID*               4849               01.8413207547E+000.0000000000E+00+
*       1.5817195283E+02               0
GRID*               4850               01.8392452830E+000.0000000000E+00+
*       1.5816216981E+02               0
GRID*               4851               01.8371698113E+000.0000000000E+00+
*       1.5815238679E+02               0
GRID*               4852               01.8350943396E+000.0000000000E+00+
*       1.5814260377E+02               0
GRID*               4853               01.8330188679E+000.0000000000E+00+
*       1.5813282075E+02               0
GRID*               4854               01.8309433962E+000.0000000000E+00+
*       1.5812303774E+02               0
GRID*               4855               01.8288679245E+000.0000000000E+00+
*       1.5811325472E+02               0
GRID*               4856               01.8267924528E+000.0000000000E+00+
*       1.5810347170E+02               0
GRID*               4857               01.8247169811E+000.0000000000E+00+
*       1.5809368868E+02               0
GRID*               4858               01.8226415094E+000.0000000000E+00+
*       1.5808390566E+02               0
GRID*               4859               01.8205660377E+000.0000000000E+00+
*       1.5807412264E+02               0
GRID*               4860               01.8184905660E+000.0000000000E+00+
*       1.5806433962E+02               0
GRID*               4861               01.8164150943E+000.0000000000E+00+
*       1.5805455660E+02               0
GRID*               4862               01.8143396226E+000.0000000000E+00+
*       1.5804477358E+02               0
GRID*               4863               01.8122641509E+000.0000000000E+00+
*       1.5803499057E+02               0
GRID*               4864               01.8101886792E+000.0000000000E+00+
*       1.5802520755E+02               0
GRID*               4865               01.8081132075E+000.0000000000E+00+
*       1.5801542453E+02               0
GRID*               4866               01.8060377358E+000.0000000000E+00+
*       1.5800564151E+02               0
GRID*               4867               01.8039622642E+000.0000000000E+00+
*       1.5799585849E+02               0
GRID*               4868               01.8018867925E+000.0000000000E+00+
*       1.5798607547E+02               0
GRID*               4869               01.7998113208E+000.0000000000E+00+
*       1.5797629245E+02               0
GRID*               4870               01.7977358491E+000.0000000000E+00+
*       1.5796650943E+02               0
GRID*               4871               01.7956603774E+000.0000000000E+00+
*       1.5795672642E+02               0
GRID*               4872               01.7935849057E+000.0000000000E+00+
*       1.5794694340E+02               0
GRID*               4873               01.7915094340E+000.0000000000E+00+
*       1.5793716038E+02               0
GRID*               4874               01.7894339623E+000.0000000000E+00+
*       1.5792737736E+02               0
GRID*               4875               01.7873584906E+000.0000000000E+00+
*       1.5791759434E+02               0
GRID*               4876               01.7852830189E+000.0000000000E+00+
*       1.5790781132E+02               0
GRID*               4877               01.7832075472E+000.0000000000E+00+
*       1.5789802830E+02               0
GRID*               4878               01.7811320755E+000.0000000000E+00+
*       1.5788824528E+02               0
GRID*               4879               01.7790566038E+000.0000000000E+00+
*       1.5787846226E+02               0
GRID*               4880               01.7769811321E+000.0000000000E+00+
*       1.5786867925E+02               0
GRID*               4881               01.7749056604E+000.0000000000E+00+
*       1.5785889623E+02               0
GRID*               4882               01.7728301887E+000.0000000000E+00+
*       1.5784911321E+02               0
GRID*               4883               01.7707547170E+000.0000000000E+00+
*       1.5783933019E+02               0
GRID*               4884               01.7686792453E+000.0000000000E+00+
*       1.5782954717E+02               0
GRID*               4885               01.7666037736E+000.0000000000E+00+
*       1.5781976415E+02               0
GRID*               4886               01.7645283019E+000.0000000000E+00+
*       1.5780998113E+02               0
GRID*               4887               01.7624528302E+000.0000000000E+00+
*       1.5780019811E+02               0
GRID*               4888               01.7603773585E+000.0000000000E+00+
*       1.5779041509E+02               0
GRID*               4889               01.7583018868E+000.0000000000E+00+
*       1.5778063208E+02               0
GRID*               4890               01.7562264151E+000.0000000000E+00+
*       1.5777084906E+02               0
GRID*               4891               01.7541509434E+000.0000000000E+00+
*       1.5776106604E+02               0
GRID*               4892               01.7520754717E+000.0000000000E+00+
*       1.5775128302E+02               0
GRID*               4893               01.7500000000E+000.0000000000E+00+
*       1.5774150000E+02               0
GRID*               4894               01.7479245283E+000.0000000000E+00+
*       1.5773171698E+02               0
GRID*               4895               01.7458490566E+000.0000000000E+00+
*       1.5772193396E+02               0
GRID*               4896               01.7437735849E+000.0000000000E+00+
*       1.5771215094E+02               0
GRID*               4897               01.7416981132E+000.0000000000E+00+
*       1.5770236792E+02               0
GRID*               4898               01.7396226415E+000.0000000000E+00+
*       1.5769258491E+02               0
GRID*               4899               01.7375471698E+000.0000000000E+00+
*       1.5768280189E+02               0
GRID*               4900               01.7354716981E+000.0000000000E+00+
*       1.5767301887E+02               0
GRID*               4901               01.7333962264E+000.0000000000E+00+
*       1.5766323585E+02               0
GRID*               4902               01.7313207547E+000.0000000000E+00+
*       1.5765345283E+02               0
GRID*               4903               01.7292452830E+000.0000000000E+00+
*       1.5764366981E+02               0
GRID*               4904               01.7271698113E+000.0000000000E+00+
*       1.5763388679E+02               0
GRID*               4905               01.7250943396E+000.0000000000E+00+
*       1.5762410377E+02               0
GRID*               4906               01.7230188679E+000.0000000000E+00+
*       1.5761432075E+02               0
GRID*               4907               01.7209433962E+000.0000000000E+00+
*       1.5760453774E+02               0
GRID*               4908               01.7188679245E+000.0000000000E+00+
*       1.5759475472E+02               0
GRID*               4909               01.7167924528E+000.0000000000E+00+
*       1.5758497170E+02               0
GRID*               4910               01.7147169811E+000.0000000000E+00+
*       1.5757518868E+02               0
GRID*               4911               01.7126415094E+000.0000000000E+00+
*       1.5756540566E+02               0
GRID*               4912               01.7105660377E+000.0000000000E+00+
*       1.5755562264E+02               0
GRID*               4913               01.7084905660E+000.0000000000E+00+
*       1.5754583962E+02               0
GRID*               4914               01.7064150943E+000.0000000000E+00+
*       1.5753605660E+02               0
GRID*               4915               01.7043396226E+000.0000000000E+00+
*       1.5752627358E+02               0
GRID*               4916               01.7022641509E+000.0000000000E+00+
*       1.5751649057E+02               0
GRID*               4917               01.7001886792E+000.0000000000E+00+
*       1.5750670755E+02               0
GRID*               4918               01.6981132075E+000.0000000000E+00+
*       1.5749692453E+02               0
GRID*               4919               01.6960377358E+000.0000000000E+00+
*       1.5748714151E+02               0
GRID*               4920               01.6939622642E+000.0000000000E+00+
*       1.5747735849E+02               0
GRID*               4921               01.6918867925E+000.0000000000E+00+
*       1.5746757547E+02               0
GRID*               4922               01.6898113208E+000.0000000000E+00+
*       1.5745779245E+02               0
GRID*               4923               01.6877358491E+000.0000000000E+00+
*       1.5744800943E+02               0
GRID*               4924               01.6856603774E+000.0000000000E+00+
*       1.5743822642E+02               0
GRID*               4925               01.6835849057E+000.0000000000E+00+
*       1.5742844340E+02               0
GRID*               4926               01.6815094340E+000.0000000000E+00+
*       1.5741866038E+02               0
GRID*               4927               01.6794339623E+000.0000000000E+00+
*       1.5740887736E+02               0
GRID*               4928               01.6773584906E+000.0000000000E+00+
*       1.5739909434E+02               0
GRID*               4929               01.6752830189E+000.0000000000E+00+
*       1.5738931132E+02               0
GRID*               4930               01.6732075472E+000.0000000000E+00+
*       1.5737952830E+02               0
GRID*               4931               01.6711320755E+000.0000000000E+00+
*       1.5736974528E+02               0
GRID*               4932               01.6690566038E+000.0000000000E+00+
*       1.5735996226E+02               0
GRID*               4933               01.6669811321E+000.0000000000E+00+
*       1.5735017925E+02               0
GRID*               4934               01.6649056604E+000.0000000000E+00+
*       1.5734039623E+02               0
GRID*               4935               01.6628301887E+000.0000000000E+00+
*       1.5733061321E+02               0
GRID*               4936               01.6607547170E+000.0000000000E+00+
*       1.5732083019E+02               0
GRID*               4937               01.6586792453E+000.0000000000E+00+
*       1.5731104717E+02               0
GRID*               4938               01.6566037736E+000.0000000000E+00+
*       1.5730126415E+02               0
GRID*               4939               01.6545283019E+000.0000000000E+00+
*       1.5729148113E+02               0
GRID*               4940               01.6524528302E+000.0000000000E+00+
*       1.5728169811E+02               0
GRID*               4941               01.6503773585E+000.0000000000E+00+
*       1.5727191509E+02               0
GRID*               4942               01.6483018868E+000.0000000000E+00+
*       1.5726213208E+02               0
GRID*               4943               01.6462264151E+000.0000000000E+00+
*       1.5725234906E+02               0
GRID*               4944               01.6441509434E+000.0000000000E+00+
*       1.5724256604E+02               0
GRID*               4945               01.6420754717E+000.0000000000E+00+
*       1.5723278302E+02               0
GRID*               4946               01.6400000000E+000.0000000000E+00+
*       1.5722300000E+02               0
GRID*               4947               01.6379245283E+000.0000000000E+00+
*       1.5721321698E+02               0
GRID*               4948               01.6358490566E+000.0000000000E+00+
*       1.5720343396E+02               0
GRID*               4949               01.6337735849E+000.0000000000E+00+
*       1.5719365094E+02               0
GRID*               4950               01.6316981132E+000.0000000000E+00+
*       1.5718386792E+02               0
GRID*               4951               01.6296226415E+000.0000000000E+00+
*       1.5717408491E+02               0
GRID*               4952               01.6275471698E+000.0000000000E+00+
*       1.5716430189E+02               0
GRID*               4953               01.6254716981E+000.0000000000E+00+
*       1.5715451887E+02               0
GRID*               4954               01.6233962264E+000.0000000000E+00+
*       1.5714473585E+02               0
GRID*               4955               01.6213207547E+000.0000000000E+00+
*       1.5713495283E+02               0
GRID*               4956               01.6192452830E+000.0000000000E+00+
*       1.5712516981E+02               0
GRID*               4957               01.6171698113E+000.0000000000E+00+
*       1.5711538679E+02               0
GRID*               4958               01.6150943396E+000.0000000000E+00+
*       1.5710560377E+02               0
GRID*               4959               01.6130188679E+000.0000000000E+00+
*       1.5709582075E+02               0
GRID*               4960               01.6109433962E+000.0000000000E+00+
*       1.5708603774E+02               0
GRID*               4961               01.6088679245E+000.0000000000E+00+
*       1.5707625472E+02               0
GRID*               4962               01.6067924528E+000.0000000000E+00+
*       1.5706647170E+02               0
GRID*               4963               01.6047169811E+000.0000000000E+00+
*       1.5705668868E+02               0
GRID*               4964               01.6026415094E+000.0000000000E+00+
*       1.5704690566E+02               0
GRID*               4965               01.6005660377E+000.0000000000E+00+
*       1.5703712264E+02               0
GRID*               4966               01.5984905660E+000.0000000000E+00+
*       1.5702733962E+02               0
GRID*               4967               01.5964150943E+000.0000000000E+00+
*       1.5701755660E+02               0
GRID*               4968               01.5943396226E+000.0000000000E+00+
*       1.5700777358E+02               0
GRID*               4969               01.5922641509E+000.0000000000E+00+
*       1.5699799057E+02               0
GRID*               4970               01.5901886792E+000.0000000000E+00+
*       1.5698820755E+02               0
GRID*               4971               01.5881132075E+000.0000000000E+00+
*       1.5697842453E+02               0
GRID*               4972               01.5860377358E+000.0000000000E+00+
*       1.5696864151E+02               0
GRID*               4973               01.5839622642E+000.0000000000E+00+
*       1.5695885849E+02               0
GRID*               4974               01.5818867925E+000.0000000000E+00+
*       1.5694907547E+02               0
GRID*               4975               01.5798113208E+000.0000000000E+00+
*       1.5693929245E+02               0
GRID*               4976               01.5777358491E+000.0000000000E+00+
*       1.5692950943E+02               0
GRID*               4977               01.5756603774E+000.0000000000E+00+
*       1.5691972642E+02               0
GRID*               4978               01.5735849057E+000.0000000000E+00+
*       1.5690994340E+02               0
GRID*               4979               01.5715094340E+000.0000000000E+00+
*       1.5690016038E+02               0
GRID*               4980               01.5694339623E+000.0000000000E+00+
*       1.5689037736E+02               0
GRID*               4981               01.5673584906E+000.0000000000E+00+
*       1.5688059434E+02               0
GRID*               4982               01.5652830189E+000.0000000000E+00+
*       1.5687081132E+02               0
GRID*               4983               01.5632075472E+000.0000000000E+00+
*       1.5686102830E+02               0
GRID*               4984               01.5611320755E+000.0000000000E+00+
*       1.5685124528E+02               0
GRID*               4985               01.5590566038E+000.0000000000E+00+
*       1.5684146226E+02               0
GRID*               4986               01.5569811321E+000.0000000000E+00+
*       1.5683167925E+02               0
GRID*               4987               01.5549056604E+000.0000000000E+00+
*       1.5682189623E+02               0
GRID*               4988               01.5528301887E+000.0000000000E+00+
*       1.5681211321E+02               0
GRID*               4989               01.5507547170E+000.0000000000E+00+
*       1.5680233019E+02               0
GRID*               4990               01.5486792453E+000.0000000000E+00+
*       1.5679254717E+02               0
GRID*               4991               01.5466037736E+000.0000000000E+00+
*       1.5678276415E+02               0
GRID*               4992               01.5445283019E+000.0000000000E+00+
*       1.5677298113E+02               0
GRID*               4993               01.5424528302E+000.0000000000E+00+
*       1.5676319811E+02               0
GRID*               4994               01.5403773585E+000.0000000000E+00+
*       1.5675341509E+02               0
GRID*               4995               01.5383018868E+000.0000000000E+00+
*       1.5674363208E+02               0
GRID*               4996               01.5362264151E+000.0000000000E+00+
*       1.5673384906E+02               0
GRID*               4997               01.5341509434E+000.0000000000E+00+
*       1.5672406604E+02               0
GRID*               4998               01.5320754717E+000.0000000000E+00+
*       1.5671428302E+02               0
GRID*               4999               01.5300000000E+000.0000000000E+00+
*       1.5670450000E+02               0
GRID*               5000               01.5279245283E+000.0000000000E+00+
*       1.5669471698E+02               0
GRID*               5001               01.5258490566E+000.0000000000E+00+
*       1.5668493396E+02               0
GRID*               5002               01.5237735849E+000.0000000000E+00+
*       1.5667515094E+02               0
GRID*               5003               01.5216981132E+000.0000000000E+00+
*       1.5666536792E+02               0
GRID*               5004               01.5196226415E+000.0000000000E+00+
*       1.5665558491E+02               0
GRID*               5005               01.5175471698E+000.0000000000E+00+
*       1.5664580189E+02               0
GRID*               5006               01.5154716981E+000.0000000000E+00+
*       1.5663601887E+02               0
GRID*               5007               01.5133962264E+000.0000000000E+00+
*       1.5662623585E+02               0
GRID*               5008               01.5113207547E+000.0000000000E+00+
*       1.5661645283E+02               0
GRID*               5009               01.5092452830E+000.0000000000E+00+
*       1.5660666981E+02               0
GRID*               5010               01.5071698113E+000.0000000000E+00+
*       1.5659688679E+02               0
GRID*               5011               01.5050943396E+000.0000000000E+00+
*       1.5658710377E+02               0
GRID*               5012               01.5030188679E+000.0000000000E+00+
*       1.5657732075E+02               0
GRID*               5013               01.5009433962E+000.0000000000E+00+
*       1.5656753774E+02               0
GRID*               5014               01.4988679245E+000.0000000000E+00+
*       1.5655775472E+02               0
GRID*               5015               01.4967924528E+000.0000000000E+00+
*       1.5654797170E+02               0
GRID*               5016               01.4947169811E+000.0000000000E+00+
*       1.5653818868E+02               0
GRID*               5017               01.4926415094E+000.0000000000E+00+
*       1.5652840566E+02               0
GRID*               5018               01.4905660377E+000.0000000000E+00+
*       1.5651862264E+02               0
GRID*               5019               01.4884905660E+000.0000000000E+00+
*       1.5650883962E+02               0
GRID*               5020               01.4864150943E+000.0000000000E+00+
*       1.5649905660E+02               0
GRID*               5021               01.4843396226E+000.0000000000E+00+
*       1.5648927358E+02               0
GRID*               5022               01.4822641509E+000.0000000000E+00+
*       1.5647949057E+02               0
GRID*               5023               01.4801886792E+000.0000000000E+00+
*       1.5646970755E+02               0
GRID*               5024               01.4781132075E+000.0000000000E+00+
*       1.5645992453E+02               0
GRID*               5025               01.4760377358E+000.0000000000E+00+
*       1.5645014151E+02               0
GRID*               5026               01.4739622642E+000.0000000000E+00+
*       1.5644035849E+02               0
GRID*               5027               01.4718867925E+000.0000000000E+00+
*       1.5643057547E+02               0
GRID*               5028               01.4698113208E+000.0000000000E+00+
*       1.5642079245E+02               0
GRID*               5029               01.4677358491E+000.0000000000E+00+
*       1.5641100943E+02               0
GRID*               5030               01.4656603774E+000.0000000000E+00+
*       1.5640122642E+02               0
GRID*               5031               01.4635849057E+000.0000000000E+00+
*       1.5639144340E+02               0
GRID*               5032               01.4615094340E+000.0000000000E+00+
*       1.5638166038E+02               0
GRID*               5033               01.4594339623E+000.0000000000E+00+
*       1.5637187736E+02               0
GRID*               5034               01.4573584906E+000.0000000000E+00+
*       1.5636209434E+02               0
GRID*               5035               01.4552830189E+000.0000000000E+00+
*       1.5635231132E+02               0
GRID*               5036               01.4532075472E+000.0000000000E+00+
*       1.5634252830E+02               0
GRID*               5037               01.4511320755E+000.0000000000E+00+
*       1.5633274528E+02               0
GRID*               5038               01.4490566038E+000.0000000000E+00+
*       1.5632296226E+02               0
GRID*               5039               01.4469811321E+000.0000000000E+00+
*       1.5631317925E+02               0
GRID*               5040               01.4449056604E+000.0000000000E+00+
*       1.5630339623E+02               0
GRID*               5041               01.4428301887E+000.0000000000E+00+
*       1.5629361321E+02               0
GRID*               5042               01.4407547170E+000.0000000000E+00+
*       1.5628383019E+02               0
GRID*               5043               01.4386792453E+000.0000000000E+00+
*       1.5627404717E+02               0
GRID*               5044               01.4366037736E+000.0000000000E+00+
*       1.5626426415E+02               0
GRID*               5045               01.4345283019E+000.0000000000E+00+
*       1.5625448113E+02               0
GRID*               5046               01.4324528302E+000.0000000000E+00+
*       1.5624469811E+02               0
GRID*               5047               01.4303773585E+000.0000000000E+00+
*       1.5623491509E+02               0
GRID*               5048               01.4283018868E+000.0000000000E+00+
*       1.5622513208E+02               0
GRID*               5049               01.4262264151E+000.0000000000E+00+
*       1.5621534906E+02               0
GRID*               5050               01.4241509434E+000.0000000000E+00+
*       1.5620556604E+02               0
GRID*               5051               01.4220754717E+000.0000000000E+00+
*       1.5619578302E+02               0
GRID*               5052               01.4200000000E+000.0000000000E+00+
*       1.5618600000E+02               0
GRID*               5053               01.4179245283E+000.0000000000E+00+
*       1.5617621698E+02               0
GRID*               5054               01.4158490566E+000.0000000000E+00+
*       1.5616643396E+02               0
GRID*               5055               01.4137735849E+000.0000000000E+00+
*       1.5615665094E+02               0
GRID*               5056               01.4116981132E+000.0000000000E+00+
*       1.5614686792E+02               0
GRID*               5057               01.4096226415E+000.0000000000E+00+
*       1.5613708491E+02               0
GRID*               5058               01.4075471698E+000.0000000000E+00+
*       1.5612730189E+02               0
GRID*               5059               01.4054716981E+000.0000000000E+00+
*       1.5611751887E+02               0
GRID*               5060               01.4033962264E+000.0000000000E+00+
*       1.5610773585E+02               0
GRID*               5061               01.4013207547E+000.0000000000E+00+
*       1.5609795283E+02               0
GRID*               5062               01.3992452830E+000.0000000000E+00+
*       1.5608816981E+02               0
GRID*               5063               01.3971698113E+000.0000000000E+00+
*       1.5607838679E+02               0
GRID*               5064               01.3950943396E+000.0000000000E+00+
*       1.5606860377E+02               0
GRID*               5065               01.3930188679E+000.0000000000E+00+
*       1.5605882075E+02               0
GRID*               5066               01.3909433962E+000.0000000000E+00+
*       1.5604903774E+02               0
GRID*               5067               01.3888679245E+000.0000000000E+00+
*       1.5603925472E+02               0
GRID*               5068               01.3867924528E+000.0000000000E+00+
*       1.5602947170E+02               0
GRID*               5069               01.3847169811E+000.0000000000E+00+
*       1.5601968868E+02               0
GRID*               5070               01.3826415094E+000.0000000000E+00+
*       1.5600990566E+02               0
GRID*               5071               01.3805660377E+000.0000000000E+00+
*       1.5600012264E+02               0
GRID*               5072               01.3784905660E+000.0000000000E+00+
*       1.5599033962E+02               0
GRID*               5073               01.3764150943E+000.0000000000E+00+
*       1.5598055660E+02               0
GRID*               5074               01.3743396226E+000.0000000000E+00+
*       1.5597077358E+02               0
GRID*               5075               01.3722641509E+000.0000000000E+00+
*       1.5596099057E+02               0
GRID*               5076               01.3701886792E+000.0000000000E+00+
*       1.5595120755E+02               0
GRID*               5077               01.3681132075E+000.0000000000E+00+
*       1.5594142453E+02               0
GRID*               5078               01.3660377358E+000.0000000000E+00+
*       1.5593164151E+02               0
GRID*               5079               01.3639622642E+000.0000000000E+00+
*       1.5592185849E+02               0
GRID*               5080               01.3618867925E+000.0000000000E+00+
*       1.5591207547E+02               0
GRID*               5081               01.3598113208E+000.0000000000E+00+
*       1.5590229245E+02               0
GRID*               5082               01.3577358491E+000.0000000000E+00+
*       1.5589250943E+02               0
GRID*               5083               01.3556603774E+000.0000000000E+00+
*       1.5588272642E+02               0
GRID*               5084               01.3535849057E+000.0000000000E+00+
*       1.5587294340E+02               0
GRID*               5085               01.3515094340E+000.0000000000E+00+
*       1.5586316038E+02               0
GRID*               5086               01.3494339623E+000.0000000000E+00+
*       1.5585337736E+02               0
GRID*               5087               01.3473584906E+000.0000000000E+00+
*       1.5584359434E+02               0
GRID*               5088               01.3452830189E+000.0000000000E+00+
*       1.5583381132E+02               0
GRID*               5089               01.3432075472E+000.0000000000E+00+
*       1.5582402830E+02               0
GRID*               5090               01.3411320755E+000.0000000000E+00+
*       1.5581424528E+02               0
GRID*               5091               01.3390566038E+000.0000000000E+00+
*       1.5580446226E+02               0
GRID*               5092               01.3369811321E+000.0000000000E+00+
*       1.5579467925E+02               0
GRID*               5093               01.3349056604E+000.0000000000E+00+
*       1.5578489623E+02               0
GRID*               5094               01.3328301887E+000.0000000000E+00+
*       1.5577511321E+02               0
GRID*               5095               01.3307547170E+000.0000000000E+00+
*       1.5576533019E+02               0
GRID*               5096               01.3286792453E+000.0000000000E+00+
*       1.5575554717E+02               0
GRID*               5097               01.3266037736E+000.0000000000E+00+
*       1.5574576415E+02               0
GRID*               5098               01.3245283019E+000.0000000000E+00+
*       1.5573598113E+02               0
GRID*               5099               01.3224528302E+000.0000000000E+00+
*       1.5572619811E+02               0
GRID*               5100               01.3203773585E+000.0000000000E+00+
*       1.5571641509E+02               0
GRID*               5101               01.3183018868E+000.0000000000E+00+
*       1.5570663208E+02               0
GRID*               5102               01.3162264151E+000.0000000000E+00+
*       1.5569684906E+02               0
GRID*               5103               01.3141509434E+000.0000000000E+00+
*       1.5568706604E+02               0
GRID*               5104               01.3120754717E+000.0000000000E+00+
*       1.5567728302E+02               0
GRID*               5105               01.3100000000E+000.0000000000E+00+
*       1.5566750000E+02               0
GRID*               5106               01.3079245283E+000.0000000000E+00+
*       1.5565771698E+02               0
GRID*               5107               01.3058490566E+000.0000000000E+00+
*       1.5564793396E+02               0
GRID*               5108               01.3037735849E+000.0000000000E+00+
*       1.5563815094E+02               0
GRID*               5109               01.3016981132E+000.0000000000E+00+
*       1.5562836792E+02               0
GRID*               5110               01.2996226415E+000.0000000000E+00+
*       1.5561858491E+02               0
GRID*               5111               01.2975471698E+000.0000000000E+00+
*       1.5560880189E+02               0
GRID*               5112               01.2954716981E+000.0000000000E+00+
*       1.5559901887E+02               0
GRID*               5113               01.2933962264E+000.0000000000E+00+
*       1.5558923585E+02               0
GRID*               5114               01.2913207547E+000.0000000000E+00+
*       1.5557945283E+02               0
GRID*               5115               01.2892452830E+000.0000000000E+00+
*       1.5556966981E+02               0
GRID*               5116               01.2871698113E+000.0000000000E+00+
*       1.5555988679E+02               0
GRID*               5117               01.2850943396E+000.0000000000E+00+
*       1.5555010377E+02               0
GRID*               5118               01.2830188679E+000.0000000000E+00+
*       1.5554032075E+02               0
GRID*               5119               01.2809433962E+000.0000000000E+00+
*       1.5553053774E+02               0
GRID*               5120               01.2788679245E+000.0000000000E+00+
*       1.5552075472E+02               0
GRID*               5121               01.2767924528E+000.0000000000E+00+
*       1.5551097170E+02               0
GRID*               5122               01.2747169811E+000.0000000000E+00+
*       1.5550118868E+02               0
GRID*               5123               01.2726415094E+000.0000000000E+00+
*       1.5549140566E+02               0
GRID*               5124               01.2705660377E+000.0000000000E+00+
*       1.5548162264E+02               0
GRID*               5125               01.2684905660E+000.0000000000E+00+
*       1.5547183962E+02               0
GRID*               5126               01.2664150943E+000.0000000000E+00+
*       1.5546205660E+02               0
GRID*               5127               01.2643396226E+000.0000000000E+00+
*       1.5545227358E+02               0
GRID*               5128               01.2622641509E+000.0000000000E+00+
*       1.5544249057E+02               0
GRID*               5129               01.2601886792E+000.0000000000E+00+
*       1.5543270755E+02               0
GRID*               5130               01.2581132075E+000.0000000000E+00+
*       1.5542292453E+02               0
GRID*               5131               01.2560377358E+000.0000000000E+00+
*       1.5541314151E+02               0
GRID*               5132               01.2539622642E+000.0000000000E+00+
*       1.5540335849E+02               0
GRID*               5133               01.2518867925E+000.0000000000E+00+
*       1.5539357547E+02               0
GRID*               5134               01.2498113208E+000.0000000000E+00+
*       1.5538379245E+02               0
GRID*               5135               01.2477358491E+000.0000000000E+00+
*       1.5537400943E+02               0
GRID*               5136               01.2456603774E+000.0000000000E+00+
*       1.5536422642E+02               0
GRID*               5137               01.2435849057E+000.0000000000E+00+
*       1.5535444340E+02               0
GRID*               5138               01.2415094340E+000.0000000000E+00+
*       1.5534466038E+02               0
GRID*               5139               01.2394339623E+000.0000000000E+00+
*       1.5533487736E+02               0
GRID*               5140               01.2373584906E+000.0000000000E+00+
*       1.5532509434E+02               0
GRID*               5141               01.2352830189E+000.0000000000E+00+
*       1.5531531132E+02               0
GRID*               5142               01.2332075472E+000.0000000000E+00+
*       1.5530552830E+02               0
GRID*               5143               01.2311320755E+000.0000000000E+00+
*       1.5529574528E+02               0
GRID*               5144               01.2290566038E+000.0000000000E+00+
*       1.5528596226E+02               0
GRID*               5145               01.2269811321E+000.0000000000E+00+
*       1.5527617925E+02               0
GRID*               5146               01.2249056604E+000.0000000000E+00+
*       1.5526639623E+02               0
GRID*               5147               01.2228301887E+000.0000000000E+00+
*       1.5525661321E+02               0
GRID*               5148               01.2207547170E+000.0000000000E+00+
*       1.5524683019E+02               0
GRID*               5149               01.2186792453E+000.0000000000E+00+
*       1.5523704717E+02               0
GRID*               5150               01.2166037736E+000.0000000000E+00+
*       1.5522726415E+02               0
GRID*               5151               01.2145283019E+000.0000000000E+00+
*       1.5521748113E+02               0
GRID*               5152               01.2124528302E+000.0000000000E+00+
*       1.5520769811E+02               0
GRID*               5153               01.2103773585E+000.0000000000E+00+
*       1.5519791509E+02               0
GRID*               5154               01.2083018868E+000.0000000000E+00+
*       1.5518813208E+02               0
GRID*               5155               01.2062264151E+000.0000000000E+00+
*       1.5517834906E+02               0
GRID*               5156               01.2041509434E+000.0000000000E+00+
*       1.5516856604E+02               0
GRID*               5157               01.2020754717E+000.0000000000E+00+
*       1.5515878302E+02               0
GRID*               5158               01.2000000000E+000.0000000000E+00+
*       1.5514900000E+02               0
GRID*               5159               01.1979245283E+000.0000000000E+00+
*       1.5513921698E+02               0
GRID*               5160               01.1958490566E+000.0000000000E+00+
*       1.5512943396E+02               0
GRID*               5161               01.1937735849E+000.0000000000E+00+
*       1.5511965094E+02               0
GRID*               5162               01.1916981132E+000.0000000000E+00+
*       1.5510986792E+02               0
GRID*               5163               01.1896226415E+000.0000000000E+00+
*       1.5510008491E+02               0
GRID*               5164               01.1875471698E+000.0000000000E+00+
*       1.5509030189E+02               0
GRID*               5165               01.1854716981E+000.0000000000E+00+
*       1.5508051887E+02               0
GRID*               5166               01.1833962264E+000.0000000000E+00+
*       1.5507073585E+02               0
GRID*               5167               01.1813207547E+000.0000000000E+00+
*       1.5506095283E+02               0
GRID*               5168               01.1792452830E+000.0000000000E+00+
*       1.5505116981E+02               0
GRID*               5169               01.1771698113E+000.0000000000E+00+
*       1.5504138679E+02               0
GRID*               5170               01.1750943396E+000.0000000000E+00+
*       1.5503160377E+02               0
GRID*               5171               01.1730188679E+000.0000000000E+00+
*       1.5502182075E+02               0
GRID*               5172               01.1709433962E+000.0000000000E+00+
*       1.5501203774E+02               0
GRID*               5173               01.1688679245E+000.0000000000E+00+
*       1.5500225472E+02               0
GRID*               5174               01.1667924528E+000.0000000000E+00+
*       1.5499247170E+02               0
GRID*               5175               01.1647169811E+000.0000000000E+00+
*       1.5498268868E+02               0
GRID*               5176               01.1626415094E+000.0000000000E+00+
*       1.5497290566E+02               0
GRID*               5177               01.1605660377E+000.0000000000E+00+
*       1.5496312264E+02               0
GRID*               5178               01.1584905660E+000.0000000000E+00+
*       1.5495333962E+02               0
GRID*               5179               01.1564150943E+000.0000000000E+00+
*       1.5494355660E+02               0
GRID*               5180               01.1543396226E+000.0000000000E+00+
*       1.5493377358E+02               0
GRID*               5181               01.1522641509E+000.0000000000E+00+
*       1.5492399057E+02               0
GRID*               5182               01.1501886792E+000.0000000000E+00+
*       1.5491420755E+02               0
GRID*               5183               01.1481132075E+000.0000000000E+00+
*       1.5490442453E+02               0
GRID*               5184               01.1460377358E+000.0000000000E+00+
*       1.5489464151E+02               0
GRID*               5185               01.1439622642E+000.0000000000E+00+
*       1.5488485849E+02               0
GRID*               5186               01.1418867925E+000.0000000000E+00+
*       1.5487507547E+02               0
GRID*               5187               01.1398113208E+000.0000000000E+00+
*       1.5486529245E+02               0
GRID*               5188               01.1377358491E+000.0000000000E+00+
*       1.5485550943E+02               0
GRID*               5189               01.1356603774E+000.0000000000E+00+
*       1.5484572642E+02               0
GRID*               5190               01.1335849057E+000.0000000000E+00+
*       1.5483594340E+02               0
GRID*               5191               01.1315094340E+000.0000000000E+00+
*       1.5482616038E+02               0
GRID*               5192               01.1294339623E+000.0000000000E+00+
*       1.5481637736E+02               0
GRID*               5193               01.1273584906E+000.0000000000E+00+
*       1.5480659434E+02               0
GRID*               5194               01.1252830189E+000.0000000000E+00+
*       1.5479681132E+02               0
GRID*               5195               01.1232075472E+000.0000000000E+00+
*       1.5478702830E+02               0
GRID*               5196               01.1211320755E+000.0000000000E+00+
*       1.5477724528E+02               0
GRID*               5197               01.1190566038E+000.0000000000E+00+
*       1.5476746226E+02               0
GRID*               5198               01.1169811321E+000.0000000000E+00+
*       1.5475767925E+02               0
GRID*               5199               01.1149056604E+000.0000000000E+00+
*       1.5474789623E+02               0
GRID*               5200               01.1128301887E+000.0000000000E+00+
*       1.5473811321E+02               0
GRID*               5201               01.1107547170E+000.0000000000E+00+
*       1.5472833019E+02               0
GRID*               5202               01.1086792453E+000.0000000000E+00+
*       1.5471854717E+02               0
GRID*               5203               01.1066037736E+000.0000000000E+00+
*       1.5470876415E+02               0
GRID*               5204               01.1045283019E+000.0000000000E+00+
*       1.5469898113E+02               0
GRID*               5205               01.1024528302E+000.0000000000E+00+
*       1.5468919811E+02               0
GRID*               5206               01.1003773585E+000.0000000000E+00+
*       1.5467941509E+02               0
GRID*               5207               01.0983018868E+000.0000000000E+00+
*       1.5466963208E+02               0
GRID*               5208               01.0962264151E+000.0000000000E+00+
*       1.5465984906E+02               0
GRID*               5209               01.0941509434E+000.0000000000E+00+
*       1.5465006604E+02               0
GRID*               5210               01.0920754717E+000.0000000000E+00+
*       1.5464028302E+02               0
GRID*               5211               01.0900000000E+000.0000000000E+00+
*       1.5463050000E+02               0
GRID*               5212               01.0879245283E+000.0000000000E+00+
*       1.5462071698E+02               0
GRID*               5213               01.0858490566E+000.0000000000E+00+
*       1.5461093396E+02               0
GRID*               5214               01.0837735849E+000.0000000000E+00+
*       1.5460115094E+02               0
GRID*               5215               01.0816981132E+000.0000000000E+00+
*       1.5459136792E+02               0
GRID*               5216               01.0796226415E+000.0000000000E+00+
*       1.5458158491E+02               0
GRID*               5217               01.0775471698E+000.0000000000E+00+
*       1.5457180189E+02               0
GRID*               5218               01.0754716981E+000.0000000000E+00+
*       1.5456201887E+02               0
GRID*               5219               01.0733962264E+000.0000000000E+00+
*       1.5455223585E+02               0
GRID*               5220               01.0713207547E+000.0000000000E+00+
*       1.5454245283E+02               0
GRID*               5221               01.0692452830E+000.0000000000E+00+
*       1.5453266981E+02               0
GRID*               5222               01.0671698113E+000.0000000000E+00+
*       1.5452288679E+02               0
GRID*               5223               01.0650943396E+000.0000000000E+00+
*       1.5451310377E+02               0
GRID*               5224               01.0630188679E+000.0000000000E+00+
*       1.5450332075E+02               0
GRID*               5225               01.0609433962E+000.0000000000E+00+
*       1.5449353774E+02               0
GRID*               5226               01.0588679245E+000.0000000000E+00+
*       1.5448375472E+02               0
GRID*               5227               01.0567924528E+000.0000000000E+00+
*       1.5447397170E+02               0
GRID*               5228               01.0547169811E+000.0000000000E+00+
*       1.5446418868E+02               0
GRID*               5229               01.0526415094E+000.0000000000E+00+
*       1.5445440566E+02               0
GRID*               5230               01.0505660377E+000.0000000000E+00+
*       1.5444462264E+02               0
GRID*               5231               01.0484905660E+000.0000000000E+00+
*       1.5443483962E+02               0
GRID*               5232               01.0464150943E+000.0000000000E+00+
*       1.5442505660E+02               0
GRID*               5233               01.0443396226E+000.0000000000E+00+
*       1.5441527358E+02               0
GRID*               5234               01.0422641509E+000.0000000000E+00+
*       1.5440549057E+02               0
GRID*               5235               01.0401886792E+000.0000000000E+00+
*       1.5439570755E+02               0
GRID*               5236               01.0381132075E+000.0000000000E+00+
*       1.5438592453E+02               0
GRID*               5237               01.0360377358E+000.0000000000E+00+
*       1.5437614151E+02               0
GRID*               5238               01.0339622642E+000.0000000000E+00+
*       1.5436635849E+02               0
GRID*               5239               01.0318867925E+000.0000000000E+00+
*       1.5435657547E+02               0
GRID*               5240               01.0298113208E+000.0000000000E+00+
*       1.5434679245E+02               0
GRID*               5241               01.0277358491E+000.0000000000E+00+
*       1.5433700943E+02               0
GRID*               5242               01.0256603774E+000.0000000000E+00+
*       1.5432722642E+02               0
GRID*               5243               01.0235849057E+000.0000000000E+00+
*       1.5431744340E+02               0
GRID*               5244               01.0215094340E+000.0000000000E+00+
*       1.5430766038E+02               0
GRID*               5245               01.0194339623E+000.0000000000E+00+
*       1.5429787736E+02               0
GRID*               5246               01.0173584906E+000.0000000000E+00+
*       1.5428809434E+02               0
GRID*               5247               01.0152830189E+000.0000000000E+00+
*       1.5427831132E+02               0
GRID*               5248               01.0132075472E+000.0000000000E+00+
*       1.5426852830E+02               0
GRID*               5249               01.0111320755E+000.0000000000E+00+
*       1.5425874528E+02               0
GRID*               5250               01.0090566038E+000.0000000000E+00+
*       1.5424896226E+02               0
GRID*               5251               01.0069811321E+000.0000000000E+00+
*       1.5423917925E+02               0
GRID*               5252               01.0049056604E+000.0000000000E+00+
*       1.5422939623E+02               0
GRID*               5253               01.0028301887E+000.0000000000E+00+
*       1.5421961321E+02               0
GRID*               5254               01.0007547170E+000.0000000000E+00+
*       1.5420983019E+02               0
GRID*               5255               09.9867924528E-010.0000000000E+00+
*       1.5420004717E+02               0
GRID*               5256               09.9660377358E-010.0000000000E+00+
*       1.5419026415E+02               0
GRID*               5257               09.9452830189E-010.0000000000E+00+
*       1.5418048113E+02               0
GRID*               5258               09.9245283019E-010.0000000000E+00+
*       1.5417069811E+02               0
GRID*               5259               09.9037735849E-010.0000000000E+00+
*       1.5416091509E+02               0
GRID*               5260               09.8830188679E-010.0000000000E+00+
*       1.5415113208E+02               0
GRID*               5261               09.8622641509E-010.0000000000E+00+
*       1.5414134906E+02               0
GRID*               5262               09.8415094340E-010.0000000000E+00+
*       1.5413156604E+02               0
GRID*               5263               09.8207547170E-010.0000000000E+00+
*       1.5412178302E+02               0
GRID*               5264               09.8000000000E-010.0000000000E+00+
*       1.5411200000E+02               0
GRID*               5265               09.7792452830E-010.0000000000E+00+
*       1.5410221698E+02               0
GRID*               5266               09.7584905660E-010.0000000000E+00+
*       1.5409243396E+02               0
GRID*               5267               09.7377358491E-010.0000000000E+00+
*       1.5408265094E+02               0
GRID*               5268               09.7169811321E-010.0000000000E+00+
*       1.5407286792E+02               0
GRID*               5269               09.6962264151E-010.0000000000E+00+
*       1.5406308491E+02               0
GRID*               5270               09.6754716981E-010.0000000000E+00+
*       1.5405330189E+02               0
GRID*               5271               09.6547169811E-010.0000000000E+00+
*       1.5404351887E+02               0
GRID*               5272               09.6339622642E-010.0000000000E+00+
*       1.5403373585E+02               0
GRID*               5273               09.6132075472E-010.0000000000E+00+
*       1.5402395283E+02               0
GRID*               5274               09.5924528302E-010.0000000000E+00+
*       1.5401416981E+02               0
GRID*               5275               09.5716981132E-010.0000000000E+00+
*       1.5400438679E+02               0
GRID*               5276               09.5509433962E-010.0000000000E+00+
*       1.5399460377E+02               0
GRID*               5277               09.5301886792E-010.0000000000E+00+
*       1.5398482075E+02               0
GRID*               5278               09.5094339623E-010.0000000000E+00+
*       1.5397503774E+02               0
GRID*               5279               09.4886792453E-010.0000000000E+00+
*       1.5396525472E+02               0
GRID*               5280               09.4679245283E-010.0000000000E+00+
*       1.5395547170E+02               0
GRID*               5281               09.4471698113E-010.0000000000E+00+
*       1.5394568868E+02               0
GRID*               5282               09.4264150943E-010.0000000000E+00+
*       1.5393590566E+02               0
GRID*               5283               09.4056603774E-010.0000000000E+00+
*       1.5392612264E+02               0
GRID*               5284               09.3849056604E-010.0000000000E+00+
*       1.5391633962E+02               0
GRID*               5285               09.3641509434E-010.0000000000E+00+
*       1.5390655660E+02               0
GRID*               5286               09.3433962264E-010.0000000000E+00+
*       1.5389677358E+02               0
GRID*               5287               09.3226415094E-010.0000000000E+00+
*       1.5388699057E+02               0
GRID*               5288               09.3018867925E-010.0000000000E+00+
*       1.5387720755E+02               0
GRID*               5289               09.2811320755E-010.0000000000E+00+
*       1.5386742453E+02               0
GRID*               5290               09.2603773585E-010.0000000000E+00+
*       1.5385764151E+02               0
GRID*               5291               09.2396226415E-010.0000000000E+00+
*       1.5384785849E+02               0
GRID*               5292               09.2188679245E-010.0000000000E+00+
*       1.5383807547E+02               0
GRID*               5293               09.1981132075E-010.0000000000E+00+
*       1.5382829245E+02               0
GRID*               5294               09.1773584906E-010.0000000000E+00+
*       1.5381850943E+02               0
GRID*               5295               09.1566037736E-010.0000000000E+00+
*       1.5380872642E+02               0
GRID*               5296               09.1358490566E-010.0000000000E+00+
*       1.5379894340E+02               0
GRID*               5297               09.1150943396E-010.0000000000E+00+
*       1.5378916038E+02               0
GRID*               5298               09.0943396226E-010.0000000000E+00+
*       1.5377937736E+02               0
GRID*               5299               09.0735849057E-010.0000000000E+00+
*       1.5376959434E+02               0
GRID*               5300               09.0528301887E-010.0000000000E+00+
*       1.5375981132E+02               0
GRID*               5301               09.0320754717E-010.0000000000E+00+
*       1.5375002830E+02               0
GRID*               5302               09.0113207547E-010.0000000000E+00+
*       1.5374024528E+02               0
GRID*               5303               08.9905660377E-010.0000000000E+00+
*       1.5373046226E+02               0
GRID*               5304               08.9698113208E-010.0000000000E+00+
*       1.5372067925E+02               0
GRID*               5305               08.9490566038E-010.0000000000E+00+
*       1.5371089623E+02               0
GRID*               5306               08.9283018868E-010.0000000000E+00+
*       1.5370111321E+02               0
GRID*               5307               08.9075471698E-010.0000000000E+00+
*       1.5369133019E+02               0
GRID*               5308               08.8867924528E-010.0000000000E+00+
*       1.5368154717E+02               0
GRID*               5309               08.8660377358E-010.0000000000E+00+
*       1.5367176415E+02               0
GRID*               5310               08.8452830189E-010.0000000000E+00+
*       1.5366198113E+02               0
GRID*               5311               08.8245283019E-010.0000000000E+00+
*       1.5365219811E+02               0
GRID*               5312               08.8037735849E-010.0000000000E+00+
*       1.5364241509E+02               0
GRID*               5313               08.7830188679E-010.0000000000E+00+
*       1.5363263208E+02               0
GRID*               5314               08.7622641509E-010.0000000000E+00+
*       1.5362284906E+02               0
GRID*               5315               08.7415094340E-010.0000000000E+00+
*       1.5361306604E+02               0
GRID*               5316               08.7207547170E-010.0000000000E+00+
*       1.5360328302E+02               0
GRID*               5317               08.7000000000E-010.0000000000E+00+
*       1.5359350000E+02               0
GRID*               5318               08.6792452830E-010.0000000000E+00+
*       1.5358371698E+02               0
GRID*               5319               08.6584905660E-010.0000000000E+00+
*       1.5357393396E+02               0
GRID*               5320               08.6377358491E-010.0000000000E+00+
*       1.5356415094E+02               0
GRID*               5321               08.6169811321E-010.0000000000E+00+
*       1.5355436792E+02               0
GRID*               5322               08.5962264151E-010.0000000000E+00+
*       1.5354458491E+02               0
GRID*               5323               08.5754716981E-010.0000000000E+00+
*       1.5353480189E+02               0
GRID*               5324               08.5547169811E-010.0000000000E+00+
*       1.5352501887E+02               0
GRID*               5325               08.5339622642E-010.0000000000E+00+
*       1.5351523585E+02               0
GRID*               5326               08.5132075472E-010.0000000000E+00+
*       1.5350545283E+02               0
GRID*               5327               08.4924528302E-010.0000000000E+00+
*       1.5349566981E+02               0
GRID*               5328               08.4716981132E-010.0000000000E+00+
*       1.5348588679E+02               0
GRID*               5329               08.4509433962E-010.0000000000E+00+
*       1.5347610377E+02               0
GRID*               5330               08.4301886792E-010.0000000000E+00+
*       1.5346632075E+02               0
GRID*               5331               08.4094339623E-010.0000000000E+00+
*       1.5345653774E+02               0
GRID*               5332               08.3886792453E-010.0000000000E+00+
*       1.5344675472E+02               0
GRID*               5333               08.3679245283E-010.0000000000E+00+
*       1.5343697170E+02               0
GRID*               5334               08.3471698113E-010.0000000000E+00+
*       1.5342718868E+02               0
GRID*               5335               08.3264150943E-010.0000000000E+00+
*       1.5341740566E+02               0
GRID*               5336               08.3056603774E-010.0000000000E+00+
*       1.5340762264E+02               0
GRID*               5337               08.2849056604E-010.0000000000E+00+
*       1.5339783962E+02               0
GRID*               5338               08.2641509434E-010.0000000000E+00+
*       1.5338805660E+02               0
GRID*               5339               08.2433962264E-010.0000000000E+00+
*       1.5337827358E+02               0
GRID*               5340               08.2226415094E-010.0000000000E+00+
*       1.5336849057E+02               0
GRID*               5341               08.2018867925E-010.0000000000E+00+
*       1.5335870755E+02               0
GRID*               5342               08.1811320755E-010.0000000000E+00+
*       1.5334892453E+02               0
GRID*               5343               08.1603773585E-010.0000000000E+00+
*       1.5333914151E+02               0
GRID*               5344               08.1396226415E-010.0000000000E+00+
*       1.5332935849E+02               0
GRID*               5345               08.1188679245E-010.0000000000E+00+
*       1.5331957547E+02               0
GRID*               5346               08.0981132075E-010.0000000000E+00+
*       1.5330979245E+02               0
GRID*               5347               08.0773584906E-010.0000000000E+00+
*       1.5330000943E+02               0
GRID*               5348               08.0566037736E-010.0000000000E+00+
*       1.5329022642E+02               0
GRID*               5349               08.0358490566E-010.0000000000E+00+
*       1.5328044340E+02               0
GRID*               5350               08.0150943396E-010.0000000000E+00+
*       1.5327066038E+02               0
GRID*               5351               07.9943396226E-010.0000000000E+00+
*       1.5326087736E+02               0
GRID*               5352               07.9735849057E-010.0000000000E+00+
*       1.5325109434E+02               0
GRID*               5353               07.9528301887E-010.0000000000E+00+
*       1.5324131132E+02               0
GRID*               5354               07.9320754717E-010.0000000000E+00+
*       1.5323152830E+02               0
GRID*               5355               07.9113207547E-010.0000000000E+00+
*       1.5322174528E+02               0
GRID*               5356               07.8905660377E-010.0000000000E+00+
*       1.5321196226E+02               0
GRID*               5357               07.8698113208E-010.0000000000E+00+
*       1.5320217925E+02               0
GRID*               5358               07.8490566038E-010.0000000000E+00+
*       1.5319239623E+02               0
GRID*               5359               07.8283018868E-010.0000000000E+00+
*       1.5318261321E+02               0
GRID*               5360               07.8075471698E-010.0000000000E+00+
*       1.5317283019E+02               0
GRID*               5361               07.7867924528E-010.0000000000E+00+
*       1.5316304717E+02               0
GRID*               5362               07.7660377358E-010.0000000000E+00+
*       1.5315326415E+02               0
GRID*               5363               07.7452830189E-010.0000000000E+00+
*       1.5314348113E+02               0
GRID*               5364               07.7245283019E-010.0000000000E+00+
*       1.5313369811E+02               0
GRID*               5365               07.7037735849E-010.0000000000E+00+
*       1.5312391509E+02               0
GRID*               5366               07.6830188679E-010.0000000000E+00+
*       1.5311413208E+02               0
GRID*               5367               07.6622641509E-010.0000000000E+00+
*       1.5310434906E+02               0
GRID*               5368               07.6415094340E-010.0000000000E+00+
*       1.5309456604E+02               0
GRID*               5369               07.6207547170E-010.0000000000E+00+
*       1.5308478302E+02               0
GRID*               5370               07.6000000000E-010.0000000000E+00+
*       1.5307500000E+02               0
GRID*               5371               07.5792452830E-010.0000000000E+00+
*       1.5306521698E+02               0
GRID*               5372               07.5584905660E-010.0000000000E+00+
*       1.5305543396E+02               0
GRID*               5373               07.5377358491E-010.0000000000E+00+
*       1.5304565094E+02               0
GRID*               5374               07.5169811321E-010.0000000000E+00+
*       1.5303586792E+02               0
GRID*               5375               07.4962264151E-010.0000000000E+00+
*       1.5302608491E+02               0
GRID*               5376               07.4754716981E-010.0000000000E+00+
*       1.5301630189E+02               0
GRID*               5377               07.4547169811E-010.0000000000E+00+
*       1.5300651887E+02               0
GRID*               5378               07.4339622642E-010.0000000000E+00+
*       1.5299673585E+02               0
GRID*               5379               07.4132075472E-010.0000000000E+00+
*       1.5298695283E+02               0
GRID*               5380               07.3924528302E-010.0000000000E+00+
*       1.5297716981E+02               0
GRID*               5381               07.3716981132E-010.0000000000E+00+
*       1.5296738679E+02               0
GRID*               5382               07.3509433962E-010.0000000000E+00+
*       1.5295760377E+02               0
GRID*               5383               07.3301886792E-010.0000000000E+00+
*       1.5294782075E+02               0
GRID*               5384               07.3094339623E-010.0000000000E+00+
*       1.5293803774E+02               0
GRID*               5385               07.2886792453E-010.0000000000E+00+
*       1.5292825472E+02               0
GRID*               5386               07.2679245283E-010.0000000000E+00+
*       1.5291847170E+02               0
GRID*               5387               07.2471698113E-010.0000000000E+00+
*       1.5290868868E+02               0
GRID*               5388               07.2264150943E-010.0000000000E+00+
*       1.5289890566E+02               0
GRID*               5389               07.2056603774E-010.0000000000E+00+
*       1.5288912264E+02               0
GRID*               5390               07.1849056604E-010.0000000000E+00+
*       1.5287933962E+02               0
GRID*               5391               07.1641509434E-010.0000000000E+00+
*       1.5286955660E+02               0
GRID*               5392               07.1433962264E-010.0000000000E+00+
*       1.5285977358E+02               0
GRID*               5393               07.1226415094E-010.0000000000E+00+
*       1.5284999057E+02               0
GRID*               5394               07.1018867925E-010.0000000000E+00+
*       1.5284020755E+02               0
GRID*               5395               07.0811320755E-010.0000000000E+00+
*       1.5283042453E+02               0
GRID*               5396               07.0603773585E-010.0000000000E+00+
*       1.5282064151E+02               0
GRID*               5397               07.0396226415E-010.0000000000E+00+
*       1.5281085849E+02               0
GRID*               5398               07.0188679245E-010.0000000000E+00+
*       1.5280107547E+02               0
GRID*               5399               06.9981132075E-010.0000000000E+00+
*       1.5279129245E+02               0
GRID*               5400               06.9773584906E-010.0000000000E+00+
*       1.5278150943E+02               0
GRID*               5401               06.9566037736E-010.0000000000E+00+
*       1.5277172642E+02               0
GRID*               5402               06.9358490566E-010.0000000000E+00+
*       1.5276194340E+02               0
GRID*               5403               06.9150943396E-010.0000000000E+00+
*       1.5275216038E+02               0
GRID*               5404               06.8943396226E-010.0000000000E+00+
*       1.5274237736E+02               0
GRID*               5405               06.8735849057E-010.0000000000E+00+
*       1.5273259434E+02               0
GRID*               5406               06.8528301887E-010.0000000000E+00+
*       1.5272281132E+02               0
GRID*               5407               06.8320754717E-010.0000000000E+00+
*       1.5271302830E+02               0
GRID*               5408               06.8113207547E-010.0000000000E+00+
*       1.5270324528E+02               0
GRID*               5409               06.7905660377E-010.0000000000E+00+
*       1.5269346226E+02               0
GRID*               5410               06.7698113208E-010.0000000000E+00+
*       1.5268367925E+02               0
GRID*               5411               06.7490566038E-010.0000000000E+00+
*       1.5267389623E+02               0
GRID*               5412               06.7283018868E-010.0000000000E+00+
*       1.5266411321E+02               0
GRID*               5413               06.7075471698E-010.0000000000E+00+
*       1.5265433019E+02               0
GRID*               5414               06.6867924528E-010.0000000000E+00+
*       1.5264454717E+02               0
GRID*               5415               06.6660377358E-010.0000000000E+00+
*       1.5263476415E+02               0
GRID*               5416               06.6452830189E-010.0000000000E+00+
*       1.5262498113E+02               0
GRID*               5417               06.6245283019E-010.0000000000E+00+
*       1.5261519811E+02               0
GRID*               5418               06.6037735849E-010.0000000000E+00+
*       1.5260541509E+02               0
GRID*               5419               06.5830188679E-010.0000000000E+00+
*       1.5259563208E+02               0
GRID*               5420               06.5622641509E-010.0000000000E+00+
*       1.5258584906E+02               0
GRID*               5421               06.5415094340E-010.0000000000E+00+
*       1.5257606604E+02               0
GRID*               5422               06.5207547170E-010.0000000000E+00+
*       1.5256628302E+02               0
GRID*               5423               06.5000000000E-010.0000000000E+00+
*       1.5255650000E+02               0
GRID*               5424               06.4792452830E-010.0000000000E+00+
*       1.5254671698E+02               0
GRID*               5425               06.4584905660E-010.0000000000E+00+
*       1.5253693396E+02               0
GRID*               5426               06.4377358491E-010.0000000000E+00+
*       1.5252715094E+02               0
GRID*               5427               06.4169811321E-010.0000000000E+00+
*       1.5251736792E+02               0
GRID*               5428               06.3962264151E-010.0000000000E+00+
*       1.5250758491E+02               0
GRID*               5429               06.3754716981E-010.0000000000E+00+
*       1.5249780189E+02               0
GRID*               5430               06.3547169811E-010.0000000000E+00+
*       1.5248801887E+02               0
GRID*               5431               06.3339622642E-010.0000000000E+00+
*       1.5247823585E+02               0
GRID*               5432               06.3132075472E-010.0000000000E+00+
*       1.5246845283E+02               0
GRID*               5433               06.2924528302E-010.0000000000E+00+
*       1.5245866981E+02               0
GRID*               5434               06.2716981132E-010.0000000000E+00+
*       1.5244888679E+02               0
GRID*               5435               06.2509433962E-010.0000000000E+00+
*       1.5243910377E+02               0
GRID*               5436               06.2301886792E-010.0000000000E+00+
*       1.5242932075E+02               0
GRID*               5437               06.2094339623E-010.0000000000E+00+
*       1.5241953774E+02               0
GRID*               5438               06.1886792453E-010.0000000000E+00+
*       1.5240975472E+02               0
GRID*               5439               06.1679245283E-010.0000000000E+00+
*       1.5239997170E+02               0
GRID*               5440               06.1471698113E-010.0000000000E+00+
*       1.5239018868E+02               0
GRID*               5441               06.1264150943E-010.0000000000E+00+
*       1.5238040566E+02               0
GRID*               5442               06.1056603774E-010.0000000000E+00+
*       1.5237062264E+02               0
GRID*               5443               06.0849056604E-010.0000000000E+00+
*       1.5236083962E+02               0
GRID*               5444               06.0641509434E-010.0000000000E+00+
*       1.5235105660E+02               0
GRID*               5445               06.0433962264E-010.0000000000E+00+
*       1.5234127358E+02               0
GRID*               5446               06.0226415094E-010.0000000000E+00+
*       1.5233149057E+02               0
GRID*               5447               06.0018867925E-010.0000000000E+00+
*       1.5232170755E+02               0
GRID*               5448               05.9811320755E-010.0000000000E+00+
*       1.5231192453E+02               0
GRID*               5449               05.9603773585E-010.0000000000E+00+
*       1.5230214151E+02               0
GRID*               5450               05.9396226415E-010.0000000000E+00+
*       1.5229235849E+02               0
GRID*               5451               05.9188679245E-010.0000000000E+00+
*       1.5228257547E+02               0
GRID*               5452               05.8981132075E-010.0000000000E+00+
*       1.5227279245E+02               0
GRID*               5453               05.8773584906E-010.0000000000E+00+
*       1.5226300943E+02               0
GRID*               5454               05.8566037736E-010.0000000000E+00+
*       1.5225322642E+02               0
GRID*               5455               05.8358490566E-010.0000000000E+00+
*       1.5224344340E+02               0
GRID*               5456               05.8150943396E-010.0000000000E+00+
*       1.5223366038E+02               0
GRID*               5457               05.7943396226E-010.0000000000E+00+
*       1.5222387736E+02               0
GRID*               5458               05.7735849057E-010.0000000000E+00+
*       1.5221409434E+02               0
GRID*               5459               05.7528301887E-010.0000000000E+00+
*       1.5220431132E+02               0
GRID*               5460               05.7320754717E-010.0000000000E+00+
*       1.5219452830E+02               0
GRID*               5461               05.7113207547E-010.0000000000E+00+
*       1.5218474528E+02               0
GRID*               5462               05.6905660377E-010.0000000000E+00+
*       1.5217496226E+02               0
GRID*               5463               05.6698113208E-010.0000000000E+00+
*       1.5216517925E+02               0
GRID*               5464               05.6490566038E-010.0000000000E+00+
*       1.5215539623E+02               0
GRID*               5465               05.6283018868E-010.0000000000E+00+
*       1.5214561321E+02               0
GRID*               5466               05.6075471698E-010.0000000000E+00+
*       1.5213583019E+02               0
GRID*               5467               05.5867924528E-010.0000000000E+00+
*       1.5212604717E+02               0
GRID*               5468               05.5660377358E-010.0000000000E+00+
*       1.5211626415E+02               0
GRID*               5469               05.5452830189E-010.0000000000E+00+
*       1.5210648113E+02               0
GRID*               5470               05.5245283019E-010.0000000000E+00+
*       1.5209669811E+02               0
GRID*               5471               05.5037735849E-010.0000000000E+00+
*       1.5208691509E+02               0
GRID*               5472               05.4830188679E-010.0000000000E+00+
*       1.5207713208E+02               0
GRID*               5473               05.4622641509E-010.0000000000E+00+
*       1.5206734906E+02               0
GRID*               5474               05.4415094340E-010.0000000000E+00+
*       1.5205756604E+02               0
GRID*               5475               05.4207547170E-010.0000000000E+00+
*       1.5204778302E+02               0
GRID*               5476               05.4000000000E-010.0000000000E+00+
*       1.5203800000E+02               0
GRID*               5477               05.3792452830E-010.0000000000E+00+
*       1.5202821698E+02               0
GRID*               5478               05.3584905660E-010.0000000000E+00+
*       1.5201843396E+02               0
GRID*               5479               05.3377358491E-010.0000000000E+00+
*       1.5200865094E+02               0
GRID*               5480               05.3169811321E-010.0000000000E+00+
*       1.5199886792E+02               0
GRID*               5481               05.2962264151E-010.0000000000E+00+
*       1.5198908491E+02               0
GRID*               5482               05.2754716981E-010.0000000000E+00+
*       1.5197930189E+02               0
GRID*               5483               05.2547169811E-010.0000000000E+00+
*       1.5196951887E+02               0
GRID*               5484               05.2339622642E-010.0000000000E+00+
*       1.5195973585E+02               0
GRID*               5485               05.2132075472E-010.0000000000E+00+
*       1.5194995283E+02               0
GRID*               5486               05.1924528302E-010.0000000000E+00+
*       1.5194016981E+02               0
GRID*               5487               05.1716981132E-010.0000000000E+00+
*       1.5193038679E+02               0
GRID*               5488               05.1509433962E-010.0000000000E+00+
*       1.5192060377E+02               0
GRID*               5489               05.1301886792E-010.0000000000E+00+
*       1.5191082075E+02               0
GRID*               5490               05.1094339623E-010.0000000000E+00+
*       1.5190103774E+02               0
GRID*               5491               05.0886792453E-010.0000000000E+00+
*       1.5189125472E+02               0
GRID*               5492               05.0679245283E-010.0000000000E+00+
*       1.5188147170E+02               0
GRID*               5493               05.0471698113E-010.0000000000E+00+
*       1.5187168868E+02               0
GRID*               5494               05.0264150943E-010.0000000000E+00+
*       1.5186190566E+02               0
GRID*               5495               05.0056603774E-010.0000000000E+00+
*       1.5185212264E+02               0
GRID*               5496               04.9849056604E-010.0000000000E+00+
*       1.5184233962E+02               0
GRID*               5497               04.9641509434E-010.0000000000E+00+
*       1.5183255660E+02               0
GRID*               5498               04.9433962264E-010.0000000000E+00+
*       1.5182277358E+02               0
GRID*               5499               04.9226415094E-010.0000000000E+00+
*       1.5181299057E+02               0
GRID*               5500               04.9018867925E-010.0000000000E+00+
*       1.5180320755E+02               0
GRID*               5501               04.8811320755E-010.0000000000E+00+
*       1.5179342453E+02               0
GRID*               5502               04.8603773585E-010.0000000000E+00+
*       1.5178364151E+02               0
GRID*               5503               04.8396226415E-010.0000000000E+00+
*       1.5177385849E+02               0
GRID*               5504               04.8188679245E-010.0000000000E+00+
*       1.5176407547E+02               0
GRID*               5505               04.7981132075E-010.0000000000E+00+
*       1.5175429245E+02               0
GRID*               5506               04.7773584906E-010.0000000000E+00+
*       1.5174450943E+02               0
GRID*               5507               04.7566037736E-010.0000000000E+00+
*       1.5173472642E+02               0
GRID*               5508               04.7358490566E-010.0000000000E+00+
*       1.5172494340E+02               0
GRID*               5509               04.7150943396E-010.0000000000E+00+
*       1.5171516038E+02               0
GRID*               5510               04.6943396226E-010.0000000000E+00+
*       1.5170537736E+02               0
GRID*               5511               04.6735849057E-010.0000000000E+00+
*       1.5169559434E+02               0
GRID*               5512               04.6528301887E-010.0000000000E+00+
*       1.5168581132E+02               0
GRID*               5513               04.6320754717E-010.0000000000E+00+
*       1.5167602830E+02               0
GRID*               5514               04.6113207547E-010.0000000000E+00+
*       1.5166624528E+02               0
GRID*               5515               04.5905660377E-010.0000000000E+00+
*       1.5165646226E+02               0
GRID*               5516               04.5698113208E-010.0000000000E+00+
*       1.5164667925E+02               0
GRID*               5517               04.5490566038E-010.0000000000E+00+
*       1.5163689623E+02               0
GRID*               5518               04.5283018868E-010.0000000000E+00+
*       1.5162711321E+02               0
GRID*               5519               04.5075471698E-010.0000000000E+00+
*       1.5161733019E+02               0
GRID*               5520               04.4867924528E-010.0000000000E+00+
*       1.5160754717E+02               0
GRID*               5521               04.4660377358E-010.0000000000E+00+
*       1.5159776415E+02               0
GRID*               5522               04.4452830189E-010.0000000000E+00+
*       1.5158798113E+02               0
GRID*               5523               04.4245283019E-010.0000000000E+00+
*       1.5157819811E+02               0
GRID*               5524               04.4037735849E-010.0000000000E+00+
*       1.5156841509E+02               0
GRID*               5525               04.3830188679E-010.0000000000E+00+
*       1.5155863208E+02               0
GRID*               5526               04.3622641509E-010.0000000000E+00+
*       1.5154884906E+02               0
GRID*               5527               04.3415094340E-010.0000000000E+00+
*       1.5153906604E+02               0
GRID*               5528               04.3207547170E-010.0000000000E+00+
*       1.5152928302E+02               0
GRID*               5529               04.3000000000E-010.0000000000E+00+
*       1.5151950000E+02               0
GRID*               5530               04.2792452830E-010.0000000000E+00+
*       1.5150971698E+02               0
GRID*               5531               04.2584905660E-010.0000000000E+00+
*       1.5149993396E+02               0
GRID*               5532               04.2377358491E-010.0000000000E+00+
*       1.5149015094E+02               0
GRID*               5533               04.2169811321E-010.0000000000E+00+
*       1.5148036792E+02               0
GRID*               5534               04.1962264151E-010.0000000000E+00+
*       1.5147058491E+02               0
GRID*               5535               04.1754716981E-010.0000000000E+00+
*       1.5146080189E+02               0
GRID*               5536               04.1547169811E-010.0000000000E+00+
*       1.5145101887E+02               0
GRID*               5537               04.1339622642E-010.0000000000E+00+
*       1.5144123585E+02               0
GRID*               5538               04.1132075472E-010.0000000000E+00+
*       1.5143145283E+02               0
GRID*               5539               04.0924528302E-010.0000000000E+00+
*       1.5142166981E+02               0
GRID*               5540               04.0716981132E-010.0000000000E+00+
*       1.5141188679E+02               0
GRID*               5541               04.0509433962E-010.0000000000E+00+
*       1.5140210377E+02               0
GRID*               5542               04.0301886792E-010.0000000000E+00+
*       1.5139232075E+02               0
GRID*               5543               04.0094339623E-010.0000000000E+00+
*       1.5138253774E+02               0
GRID*               5544               03.9886792453E-010.0000000000E+00+
*       1.5137275472E+02               0
GRID*               5545               03.9679245283E-010.0000000000E+00+
*       1.5136297170E+02               0
GRID*               5546               03.9471698113E-010.0000000000E+00+
*       1.5135318868E+02               0
GRID*               5547               03.9264150943E-010.0000000000E+00+
*       1.5134340566E+02               0
GRID*               5548               03.9056603774E-010.0000000000E+00+
*       1.5133362264E+02               0
GRID*               5549               03.8849056604E-010.0000000000E+00+
*       1.5132383962E+02               0
GRID*               5550               03.8641509434E-010.0000000000E+00+
*       1.5131405660E+02               0
GRID*               5551               03.8433962264E-010.0000000000E+00+
*       1.5130427358E+02               0
GRID*               5552               03.8226415094E-010.0000000000E+00+
*       1.5129449057E+02               0
GRID*               5553               03.8018867925E-010.0000000000E+00+
*       1.5128470755E+02               0
GRID*               5554               03.7811320755E-010.0000000000E+00+
*       1.5127492453E+02               0
GRID*               5555               03.7603773585E-010.0000000000E+00+
*       1.5126514151E+02               0
GRID*               5556               03.7396226415E-010.0000000000E+00+
*       1.5125535849E+02               0
GRID*               5557               03.7188679245E-010.0000000000E+00+
*       1.5124557547E+02               0
GRID*               5558               03.6981132075E-010.0000000000E+00+
*       1.5123579245E+02               0
GRID*               5559               03.6773584906E-010.0000000000E+00+
*       1.5122600943E+02               0
GRID*               5560               03.6566037736E-010.0000000000E+00+
*       1.5121622642E+02               0
GRID*               5561               03.6358490566E-010.0000000000E+00+
*       1.5120644340E+02               0
GRID*               5562               03.6150943396E-010.0000000000E+00+
*       1.5119666038E+02               0
GRID*               5563               03.5943396226E-010.0000000000E+00+
*       1.5118687736E+02               0
GRID*               5564               03.5735849057E-010.0000000000E+00+
*       1.5117709434E+02               0
GRID*               5565               03.5528301887E-010.0000000000E+00+
*       1.5116731132E+02               0
GRID*               5566               03.5320754717E-010.0000000000E+00+
*       1.5115752830E+02               0
GRID*               5567               03.5113207547E-010.0000000000E+00+
*       1.5114774528E+02               0
GRID*               5568               03.4905660377E-010.0000000000E+00+
*       1.5113796226E+02               0
GRID*               5569               03.4698113208E-010.0000000000E+00+
*       1.5112817925E+02               0
GRID*               5570               03.4490566038E-010.0000000000E+00+
*       1.5111839623E+02               0
GRID*               5571               03.4283018868E-010.0000000000E+00+
*       1.5110861321E+02               0
GRID*               5572               03.4075471698E-010.0000000000E+00+
*       1.5109883019E+02               0
GRID*               5573               03.3867924528E-010.0000000000E+00+
*       1.5108904717E+02               0
GRID*               5574               03.3660377359E-010.0000000000E+00+
*       1.5107926415E+02               0
GRID*               5575               03.3452830189E-010.0000000000E+00+
*       1.5106948113E+02               0
GRID*               5576               03.3245283019E-010.0000000000E+00+
*       1.5105969811E+02               0
GRID*               5577               03.3037735849E-010.0000000000E+00+
*       1.5104991509E+02               0
GRID*               5578               03.2830188679E-010.0000000000E+00+
*       1.5104013208E+02               0
GRID*               5579               03.2622641509E-010.0000000000E+00+
*       1.5103034906E+02               0
GRID*               5580               03.2415094340E-010.0000000000E+00+
*       1.5102056604E+02               0
GRID*               5581               03.2207547170E-010.0000000000E+00+
*       1.5101078302E+02               0
GRID*               5582               03.2000000000E-010.0000000000E+00+
*       1.5100100000E+02               0
GRID*               5583               03.1792452830E-010.0000000000E+00+
*       1.5099121698E+02               0
GRID*               5584               03.1584905660E-010.0000000000E+00+
*       1.5098143396E+02               0
GRID*               5585               03.1377358491E-010.0000000000E+00+
*       1.5097165094E+02               0
GRID*               5586               03.1169811321E-010.0000000000E+00+
*       1.5096186792E+02               0
GRID*               5587               03.0962264151E-010.0000000000E+00+
*       1.5095208491E+02               0
GRID*               5588               03.0754716981E-010.0000000000E+00+
*       1.5094230189E+02               0
GRID*               5589               03.0547169811E-010.0000000000E+00+
*       1.5093251887E+02               0
GRID*               5590               03.0339622642E-010.0000000000E+00+
*       1.5092273585E+02               0
GRID*               5591               03.0132075472E-010.0000000000E+00+
*       1.5091295283E+02               0
GRID*               5592               02.9924528302E-010.0000000000E+00+
*       1.5090316981E+02               0
GRID*               5593               02.9716981132E-010.0000000000E+00+
*       1.5089338679E+02               0
GRID*               5594               02.9509433962E-010.0000000000E+00+
*       1.5088360377E+02               0
GRID*               5595               02.9301886792E-010.0000000000E+00+
*       1.5087382075E+02               0
GRID*               5596               02.9094339623E-010.0000000000E+00+
*       1.5086403774E+02               0
GRID*               5597               02.8886792453E-010.0000000000E+00+
*       1.5085425472E+02               0
GRID*               5598               02.8679245283E-010.0000000000E+00+
*       1.5084447170E+02               0
GRID*               5599               02.8471698113E-010.0000000000E+00+
*       1.5083468868E+02               0
GRID*               5600               02.8264150943E-010.0000000000E+00+
*       1.5082490566E+02               0
GRID*               5601               02.8056603774E-010.0000000000E+00+
*       1.5081512264E+02               0
GRID*               5602               02.7849056604E-010.0000000000E+00+
*       1.5080533962E+02               0
GRID*               5603               02.7641509434E-010.0000000000E+00+
*       1.5079555660E+02               0
GRID*               5604               02.7433962264E-010.0000000000E+00+
*       1.5078577358E+02               0
GRID*               5605               02.7226415094E-010.0000000000E+00+
*       1.5077599057E+02               0
GRID*               5606               02.7018867925E-010.0000000000E+00+
*       1.5076620755E+02               0
GRID*               5607               02.6811320755E-010.0000000000E+00+
*       1.5075642453E+02               0
GRID*               5608               02.6603773585E-010.0000000000E+00+
*       1.5074664151E+02               0
GRID*               5609               02.6396226415E-010.0000000000E+00+
*       1.5073685849E+02               0
GRID*               5610               02.6188679245E-010.0000000000E+00+
*       1.5072707547E+02               0
GRID*               5611               02.5981132075E-010.0000000000E+00+
*       1.5071729245E+02               0
GRID*               5612               02.5773584906E-010.0000000000E+00+
*       1.5070750943E+02               0
GRID*               5613               02.5566037736E-010.0000000000E+00+
*       1.5069772642E+02               0
GRID*               5614               02.5358490566E-010.0000000000E+00+
*       1.5068794340E+02               0
GRID*               5615               02.5150943396E-010.0000000000E+00+
*       1.5067816038E+02               0
GRID*               5616               02.4943396226E-010.0000000000E+00+
*       1.5066837736E+02               0
GRID*               5617               02.4735849057E-010.0000000000E+00+
*       1.5065859434E+02               0
GRID*               5618               02.4528301887E-010.0000000000E+00+
*       1.5064881132E+02               0
GRID*               5619               02.4320754717E-010.0000000000E+00+
*       1.5063902830E+02               0
GRID*               5620               02.4113207547E-010.0000000000E+00+
*       1.5062924528E+02               0
GRID*               5621               02.3905660377E-010.0000000000E+00+
*       1.5061946226E+02               0
GRID*               5622               02.3698113208E-010.0000000000E+00+
*       1.5060967925E+02               0
GRID*               5623               02.3490566038E-010.0000000000E+00+
*       1.5059989623E+02               0
GRID*               5624               02.3283018868E-010.0000000000E+00+
*       1.5059011321E+02               0
GRID*               5625               02.3075471698E-010.0000000000E+00+
*       1.5058033019E+02               0
GRID*               5626               02.2867924528E-010.0000000000E+00+
*       1.5057054717E+02               0
GRID*               5627               02.2660377359E-010.0000000000E+00+
*       1.5056076415E+02               0
GRID*               5628               02.2452830189E-010.0000000000E+00+
*       1.5055098113E+02               0
GRID*               5629               02.2245283019E-010.0000000000E+00+
*       1.5054119811E+02               0
GRID*               5630               02.2037735849E-010.0000000000E+00+
*       1.5053141509E+02               0
GRID*               5631               02.1830188679E-010.0000000000E+00+
*       1.5052163208E+02               0
GRID*               5632               02.1622641509E-010.0000000000E+00+
*       1.5051184906E+02               0
GRID*               5633               02.1415094340E-010.0000000000E+00+
*       1.5050206604E+02               0
GRID*               5634               02.1207547170E-010.0000000000E+00+
*       1.5049228302E+02               0
GRID*               5635               02.1000000000E-010.0000000000E+00+
*       1.5048250000E+02               0
GRID*               5636               02.0792452830E-010.0000000000E+00+
*       1.5047271698E+02               0
GRID*               5637               02.0584905660E-010.0000000000E+00+
*       1.5046293396E+02               0
GRID*               5638               02.0377358491E-010.0000000000E+00+
*       1.5045315094E+02               0
GRID*               5639               02.0169811321E-010.0000000000E+00+
*       1.5044336792E+02               0
GRID*               5640               01.9962264151E-010.0000000000E+00+
*       1.5043358491E+02               0
GRID*               5641               01.9754716981E-010.0000000000E+00+
*       1.5042380189E+02               0
GRID*               5642               01.9547169811E-010.0000000000E+00+
*       1.5041401887E+02               0
GRID*               5643               01.9339622642E-010.0000000000E+00+
*       1.5040423585E+02               0
GRID*               5644               01.9132075472E-010.0000000000E+00+
*       1.5039445283E+02               0
GRID*               5645               01.8924528302E-010.0000000000E+00+
*       1.5038466981E+02               0
GRID*               5646               01.8716981132E-010.0000000000E+00+
*       1.5037488679E+02               0
GRID*               5647               01.8509433962E-010.0000000000E+00+
*       1.5036510377E+02               0
GRID*               5648               01.8301886792E-010.0000000000E+00+
*       1.5035532075E+02               0
GRID*               5649               01.8094339623E-010.0000000000E+00+
*       1.5034553774E+02               0
GRID*               5650               01.7886792453E-010.0000000000E+00+
*       1.5033575472E+02               0
GRID*               5651               01.7679245283E-010.0000000000E+00+
*       1.5032597170E+02               0
GRID*               5652               01.7471698113E-010.0000000000E+00+
*       1.5031618868E+02               0
GRID*               5653               01.7264150943E-010.0000000000E+00+
*       1.5030640566E+02               0
GRID*               5654               01.7056603774E-010.0000000000E+00+
*       1.5029662264E+02               0
GRID*               5655               01.6849056604E-010.0000000000E+00+
*       1.5028683962E+02               0
GRID*               5656               01.6641509434E-010.0000000000E+00+
*       1.5027705660E+02               0
GRID*               5657               01.6433962264E-010.0000000000E+00+
*       1.5026727358E+02               0
GRID*               5658               01.6226415094E-010.0000000000E+00+
*       1.5025749057E+02               0
GRID*               5659               01.6018867925E-010.0000000000E+00+
*       1.5024770755E+02               0
GRID*               5660               01.5811320755E-010.0000000000E+00+
*       1.5023792453E+02               0
GRID*               5661               01.5603773585E-010.0000000000E+00+
*       1.5022814151E+02               0
GRID*               5662               01.5396226415E-010.0000000000E+00+
*       1.5021835849E+02               0
GRID*               5663               01.5188679245E-010.0000000000E+00+
*       1.5020857547E+02               0
GRID*               5664               01.4981132075E-010.0000000000E+00+
*       1.5019879245E+02               0
GRID*               5665               01.4773584906E-010.0000000000E+00+
*       1.5018900943E+02               0
GRID*               5666               01.4566037736E-010.0000000000E+00+
*       1.5017922642E+02               0
GRID*               5667               01.4358490566E-010.0000000000E+00+
*       1.5016944340E+02               0
GRID*               5668               01.4150943396E-010.0000000000E+00+
*       1.5015966038E+02               0
GRID*               5669               01.3943396226E-010.0000000000E+00+
*       1.5014987736E+02               0
GRID*               5670               01.3735849057E-010.0000000000E+00+
*       1.5014009434E+02               0
GRID*               5671               01.3528301887E-010.0000000000E+00+
*       1.5013031132E+02               0
GRID*               5672               01.3320754717E-010.0000000000E+00+
*       1.5012052830E+02               0
GRID*               5673               01.3113207547E-010.0000000000E+00+
*       1.5011074528E+02               0
GRID*               5674               01.2905660377E-010.0000000000E+00+
*       1.5010096226E+02               0
GRID*               5675               01.2698113208E-010.0000000000E+00+
*       1.5009117925E+02               0
GRID*               5676               01.2490566038E-010.0000000000E+00+
*       1.5008139623E+02               0
GRID*               5677               01.2283018868E-010.0000000000E+00+
*       1.5007161321E+02               0
GRID*               5678               01.2075471698E-010.0000000000E+00+
*       1.5006183019E+02               0
GRID*               5679               01.1867924528E-010.0000000000E+00+
*       1.5005204717E+02               0
GRID*               5680               01.1660377359E-010.0000000000E+00+
*       1.5004226415E+02               0
GRID*               5681               01.1452830189E-010.0000000000E+00+
*       1.5003248113E+02               0
GRID*               5682               01.1245283019E-010.0000000000E+00+
*       1.5002269811E+02               0
GRID*               5683               01.1037735849E-010.0000000000E+00+
*       1.5001291509E+02               0
GRID*               5684               01.0830188679E-010.0000000000E+00+
*       1.5000313208E+02               0
GRID*               5685               01.0622641509E-010.0000000000E+00+
*       1.4999334906E+02               0
GRID*               5686               01.0415094340E-010.0000000000E+00+
*       1.4998356604E+02               0
GRID*               5687               01.0207547170E-010.0000000000E+00+
*       1.4997378302E+02               0
GRID*               5688               01.0000000000E-010.0000000000E+00+
*       1.4996400000E+02               0
GRID*               5689               09.7924528302E-020.0000000000E+00+
*       1.4995421698E+02               0
GRID*               5690               09.5849056604E-020.0000000000E+00+
*       1.4994443396E+02               0
GRID*               5691               09.3773584906E-020.0000000000E+00+
*       1.4993465094E+02               0
GRID*               5692               09.1698113208E-020.0000000000E+00+
*       1.4992486792E+02               0
GRID*               5693               08.9622641510E-020.0000000000E+00+
*       1.4991508491E+02               0
GRID*               5694               08.7547169811E-020.0000000000E+00+
*       1.4990530189E+02               0
GRID*               5695               08.5471698113E-020.0000000000E+00+
*       1.4989551887E+02               0
GRID*               5696               08.3396226415E-020.0000000000E+00+
*       1.4988573585E+02               0
GRID*               5697               08.1320754717E-020.0000000000E+00+
*       1.4987595283E+02               0
GRID*               5698               07.9245283019E-020.0000000000E+00+
*       1.4986616981E+02               0
GRID*               5699               07.7169811321E-020.0000000000E+00+
*       1.4985638679E+02               0
GRID*               5700               07.5094339623E-020.0000000000E+00+
*       1.4984660377E+02               0
GRID*               5701               07.3018867925E-020.0000000000E+00+
*       1.4983682075E+02               0
GRID*               5702               07.0943396227E-020.0000000000E+00+
*       1.4982703774E+02               0
GRID*               5703               06.8867924528E-020.0000000000E+00+
*       1.4981725472E+02               0
GRID*               5704               06.6792452830E-020.0000000000E+00+
*       1.4980747170E+02               0
GRID*               5705               06.4716981132E-020.0000000000E+00+
*       1.4979768868E+02               0
GRID*               5706               06.2641509434E-020.0000000000E+00+
*       1.4978790566E+02               0
GRID*               5707               06.0566037736E-020.0000000000E+00+
*       1.4977812264E+02               0
GRID*               5708               05.8490566038E-020.0000000000E+00+
*       1.4976833962E+02               0
GRID*               5709               05.6415094340E-020.0000000000E+00+
*       1.4975855660E+02               0
GRID*               5710               05.4339622642E-020.0000000000E+00+
*       1.4974877358E+02               0
GRID*               5711               05.2264150944E-020.0000000000E+00+
*       1.4973899057E+02               0
GRID*               5712               05.0188679245E-020.0000000000E+00+
*       1.4972920755E+02               0
GRID*               5713               04.8113207547E-020.0000000000E+00+
*       1.4971942453E+02               0
GRID*               5714               04.6037735849E-020.0000000000E+00+
*       1.4970964151E+02               0
GRID*               5715               04.3962264151E-020.0000000000E+00+
*       1.4969985849E+02               0
GRID*               5716               04.1886792453E-020.0000000000E+00+
*       1.4969007547E+02               0
GRID*               5717               03.9811320755E-020.0000000000E+00+
*       1.4968029245E+02               0
GRID*               5718               03.7735849057E-020.0000000000E+00+
*       1.4967050943E+02               0
GRID*               5719               03.5660377359E-020.0000000000E+00+
*       1.4966072642E+02               0
GRID*               5720               03.3584905661E-020.0000000000E+00+
*       1.4965094340E+02               0
GRID*               5721               03.1509433962E-020.0000000000E+00+
*       1.4964116038E+02               0
GRID*               5722               02.9433962264E-020.0000000000E+00+
*       1.4963137736E+02               0
GRID*               5723               02.7358490566E-020.0000000000E+00+
*       1.4962159434E+02               0
GRID*               5724               02.5283018868E-020.0000000000E+00+
*       1.4961181132E+02               0
GRID*               5725               02.3207547170E-020.0000000000E+00+
*       1.4960202830E+02               0
GRID*               5726               02.1132075472E-020.0000000000E+00+
*       1.4959224528E+02               0
GRID*               5727               01.9056603774E-020.0000000000E+00+
*       1.4958246226E+02               0
GRID*               5728               01.6981132076E-020.0000000000E+00+
*       1.4957267925E+02               0
GRID*               5729               01.4905660378E-020.0000000000E+00+
*       1.4956289623E+02               0
GRID*               5730               01.2830188679E-020.0000000000E+00+
*       1.4955311321E+02               0
GRID*               5731               01.0754716981E-020.0000000000E+00+
*       1.4954333019E+02               0
GRID*               5732               08.6792452832E-030.0000000000E+00+
*       1.4953354717E+02               0
GRID*               5733               06.6037735851E-030.0000000000E+00+
*       1.4952376415E+02               0
GRID*               5734               04.5283018870E-030.0000000000E+00+
*       1.4951398113E+02               0
GRID*               5735               02.4528301888E-030.0000000000E+00+
*       1.4950419811E+02               0
GRID*               5736               03.7735849073E-040.0000000000E+00+
*       1.4949441509E+02               0
GRID*               5737               0-1.698113207E-030.0000000000E+00+
*       1.4948463208E+02               0
GRID*               5738               0-3.773584905E-030.0000000000E+00+
*       1.4947484906E+02               0
GRID*               5739               0-5.849056604E-030.0000000000E+00+
*       1.4946506604E+02               0
GRID*               5740               0-7.924528302E-030.0000000000E+00+
*       1.4945528302E+02               0
GRID*               5741               0-1.000000000E-020.0000000000E+00+
*       1.4944550000E+02               0
GRID*               5742               0-1.207547170E-020.0000000000E+00+
*       1.4943571698E+02               0
GRID*               5743               0-1.415094340E-020.0000000000E+00+
*       1.4942593396E+02               0
GRID*               5744               0-1.622641509E-020.0000000000E+00+
*       1.4941615094E+02               0
GRID*               5745               0-1.830188679E-020.0000000000E+00+
*       1.4940636792E+02               0
GRID*               5746               0-2.037735849E-020.0000000000E+00+
*       1.4939658491E+02               0
GRID*               5747               0-2.245283019E-020.0000000000E+00+
*       1.4938680189E+02               0
GRID*               5748               0-2.452830189E-020.0000000000E+00+
*       1.4937701887E+02               0
GRID*               5749               0-2.660377358E-020.0000000000E+00+
*       1.4936723585E+02               0
GRID*               5750               0-2.867924528E-020.0000000000E+00+
*       1.4935745283E+02               0
GRID*               5751               0-3.075471698E-020.0000000000E+00+
*       1.4934766981E+02               0
GRID*               5752               0-3.283018868E-020.0000000000E+00+
*       1.4933788679E+02               0
GRID*               5753               0-3.490566038E-020.0000000000E+00+
*       1.4932810377E+02               0
GRID*               5754               0-3.698113208E-020.0000000000E+00+
*       1.4931832075E+02               0
GRID*               5755               0-3.905660377E-020.0000000000E+00+
*       1.4930853774E+02               0
GRID*               5756               0-4.113207547E-020.0000000000E+00+
*       1.4929875472E+02               0
GRID*               5757               0-4.320754717E-020.0000000000E+00+
*       1.4928897170E+02               0
GRID*               5758               0-4.528301887E-020.0000000000E+00+
*       1.4927918868E+02               0
GRID*               5759               0-4.735849057E-020.0000000000E+00+
*       1.4926940566E+02               0
GRID*               5760               0-4.943396226E-020.0000000000E+00+
*       1.4925962264E+02               0
GRID*               5761               0-5.150943396E-020.0000000000E+00+
*       1.4924983962E+02               0
GRID*               5762               0-5.358490566E-020.0000000000E+00+
*       1.4924005660E+02               0
GRID*               5763               0-5.566037736E-020.0000000000E+00+
*       1.4923027358E+02               0
GRID*               5764               0-5.773584906E-020.0000000000E+00+
*       1.4922049057E+02               0
GRID*               5765               0-5.981132075E-020.0000000000E+00+
*       1.4921070755E+02               0
GRID*               5766               0-6.188679245E-020.0000000000E+00+
*       1.4920092453E+02               0
GRID*               5767               0-6.396226415E-020.0000000000E+00+
*       1.4919114151E+02               0
GRID*               5768               0-6.603773585E-020.0000000000E+00+
*       1.4918135849E+02               0
GRID*               5769               0-6.811320755E-020.0000000000E+00+
*       1.4917157547E+02               0
GRID*               5770               0-7.018867925E-020.0000000000E+00+
*       1.4916179245E+02               0
GRID*               5771               0-7.226415094E-020.0000000000E+00+
*       1.4915200943E+02               0
GRID*               5772               0-7.433962264E-020.0000000000E+00+
*       1.4914222642E+02               0
GRID*               5773               0-7.641509434E-020.0000000000E+00+
*       1.4913244340E+02               0
GRID*               5774               0-7.849056604E-020.0000000000E+00+
*       1.4912266038E+02               0
GRID*               5775               0-8.056603774E-020.0000000000E+00+
*       1.4911287736E+02               0
GRID*               5776               0-8.264150943E-020.0000000000E+00+
*       1.4910309434E+02               0
GRID*               5777               0-8.471698113E-020.0000000000E+00+
*       1.4909331132E+02               0
GRID*               5778               0-8.679245283E-020.0000000000E+00+
*       1.4908352830E+02               0
GRID*               5779               0-8.886792453E-020.0000000000E+00+
*       1.4907374528E+02               0
GRID*               5780               0-9.094339623E-020.0000000000E+00+
*       1.4906396226E+02               0
GRID*               5781               0-9.301886792E-020.0000000000E+00+
*       1.4905417925E+02               0
GRID*               5782               0-9.509433962E-020.0000000000E+00+
*       1.4904439623E+02               0
GRID*               5783               0-9.716981132E-020.0000000000E+00+
*       1.4903461321E+02               0
GRID*               5784               0-9.924528302E-020.0000000000E+00+
*       1.4902483019E+02               0
GRID*               5785               0-1.013207547E-010.0000000000E+00+
*       1.4901504717E+02               0
GRID*               5786               0-1.033962264E-010.0000000000E+00+
*       1.4900526415E+02               0
GRID*               5787               0-1.054716981E-010.0000000000E+00+
*       1.4899548113E+02               0
GRID*               5788               0-1.075471698E-010.0000000000E+00+
*       1.4898569811E+02               0
GRID*               5789               0-1.096226415E-010.0000000000E+00+
*       1.4897591509E+02               0
GRID*               5790               0-1.116981132E-010.0000000000E+00+
*       1.4896613208E+02               0
GRID*               5791               0-1.137735849E-010.0000000000E+00+
*       1.4895634906E+02               0
GRID*               5792               0-1.158490566E-010.0000000000E+00+
*       1.4894656604E+02               0
GRID*               5793               0-1.179245283E-010.0000000000E+00+
*       1.4893678302E+02               0
GRID*               5794               0-1.200000000E-010.0000000000E+00+
*       1.4892700000E+02               0
GRID*               5795               0-1.220754717E-010.0000000000E+00+
*       1.4891721698E+02               0
GRID*               5796               0-1.241509434E-010.0000000000E+00+
*       1.4890743396E+02               0
GRID*               5797               0-1.262264151E-010.0000000000E+00+
*       1.4889765094E+02               0
GRID*               5798               0-1.283018868E-010.0000000000E+00+
*       1.4888786792E+02               0
GRID*               5799               0-1.303773585E-010.0000000000E+00+
*       1.4887808491E+02               0
GRID*               5800               0-1.324528302E-010.0000000000E+00+
*       1.4886830189E+02               0
GRID*               5801               0-1.345283019E-010.0000000000E+00+
*       1.4885851887E+02               0
GRID*               5802               0-1.366037736E-010.0000000000E+00+
*       1.4884873585E+02               0
GRID*               5803               0-1.386792453E-010.0000000000E+00+
*       1.4883895283E+02               0
GRID*               5804               0-1.407547170E-010.0000000000E+00+
*       1.4882916981E+02               0
GRID*               5805               0-1.428301887E-010.0000000000E+00+
*       1.4881938679E+02               0
GRID*               5806               0-1.449056604E-010.0000000000E+00+
*       1.4880960377E+02               0
GRID*               5807               0-1.469811321E-010.0000000000E+00+
*       1.4879982075E+02               0
GRID*               5808               0-1.490566038E-010.0000000000E+00+
*       1.4879003774E+02               0
GRID*               5809               0-1.511320755E-010.0000000000E+00+
*       1.4878025472E+02               0
GRID*               5810               0-1.532075472E-010.0000000000E+00+
*       1.4877047170E+02               0
GRID*               5811               0-1.552830189E-010.0000000000E+00+
*       1.4876068868E+02               0
GRID*               5812               0-1.573584906E-010.0000000000E+00+
*       1.4875090566E+02               0
GRID*               5813               0-1.594339623E-010.0000000000E+00+
*       1.4874112264E+02               0
GRID*               5814               0-1.615094340E-010.0000000000E+00+
*       1.4873133962E+02               0
GRID*               5815               0-1.635849057E-010.0000000000E+00+
*       1.4872155660E+02               0
GRID*               5816               0-1.656603774E-010.0000000000E+00+
*       1.4871177358E+02               0
GRID*               5817               0-1.677358491E-010.0000000000E+00+
*       1.4870199057E+02               0
GRID*               5818               0-1.698113208E-010.0000000000E+00+
*       1.4869220755E+02               0
GRID*               5819               0-1.718867925E-010.0000000000E+00+
*       1.4868242453E+02               0
GRID*               5820               0-1.739622642E-010.0000000000E+00+
*       1.4867264151E+02               0
GRID*               5821               0-1.760377358E-010.0000000000E+00+
*       1.4866285849E+02               0
GRID*               5822               0-1.781132075E-010.0000000000E+00+
*       1.4865307547E+02               0
GRID*               5823               0-1.801886792E-010.0000000000E+00+
*       1.4864329245E+02               0
GRID*               5824               0-1.822641509E-010.0000000000E+00+
*       1.4863350943E+02               0
GRID*               5825               0-1.843396226E-010.0000000000E+00+
*       1.4862372642E+02               0
GRID*               5826               0-1.864150943E-010.0000000000E+00+
*       1.4861394340E+02               0
GRID*               5827               0-1.884905660E-010.0000000000E+00+
*       1.4860416038E+02               0
GRID*               5828               0-1.905660377E-010.0000000000E+00+
*       1.4859437736E+02               0
GRID*               5829               0-1.926415094E-010.0000000000E+00+
*       1.4858459434E+02               0
GRID*               5830               0-1.947169811E-010.0000000000E+00+
*       1.4857481132E+02               0
GRID*               5831               0-1.967924528E-010.0000000000E+00+
*       1.4856502830E+02               0
GRID*               5832               0-1.988679245E-010.0000000000E+00+
*       1.4855524528E+02               0
GRID*               5833               0-2.009433962E-010.0000000000E+00+
*       1.4854546226E+02               0
GRID*               5834               0-2.030188679E-010.0000000000E+00+
*       1.4853567925E+02               0
GRID*               5835               0-2.050943396E-010.0000000000E+00+
*       1.4852589623E+02               0
GRID*               5836               0-2.071698113E-010.0000000000E+00+
*       1.4851611321E+02               0
GRID*               5837               0-2.092452830E-010.0000000000E+00+
*       1.4850633019E+02               0
GRID*               5838               0-2.113207547E-010.0000000000E+00+
*       1.4849654717E+02               0
GRID*               5839               0-2.133962264E-010.0000000000E+00+
*       1.4848676415E+02               0
GRID*               5840               0-2.154716981E-010.0000000000E+00+
*       1.4847698113E+02               0
GRID*               5841               0-2.175471698E-010.0000000000E+00+
*       1.4846719811E+02               0
GRID*               5842               0-2.196226415E-010.0000000000E+00+
*       1.4845741509E+02               0
GRID*               5843               0-2.216981132E-010.0000000000E+00+
*       1.4844763208E+02               0
GRID*               5844               0-2.237735849E-010.0000000000E+00+
*       1.4843784906E+02               0
GRID*               5845               0-2.258490566E-010.0000000000E+00+
*       1.4842806604E+02               0
GRID*               5846               0-2.279245283E-010.0000000000E+00+
*       1.4841828302E+02               0
GRID*               5847               0-2.300000000E-010.0000000000E+00+
*       1.4840850000E+02               0
GRID*               5848               0-2.320754717E-010.0000000000E+00+
*       1.4839871698E+02               0
GRID*               5849               0-2.341509434E-010.0000000000E+00+
*       1.4838893396E+02               0
GRID*               5850               0-2.362264151E-010.0000000000E+00+
*       1.4837915094E+02               0
GRID*               5851               0-2.383018868E-010.0000000000E+00+
*       1.4836936792E+02               0
GRID*               5852               0-2.403773585E-010.0000000000E+00+
*       1.4835958491E+02               0
GRID*               5853               0-2.424528302E-010.0000000000E+00+
*       1.4834980189E+02               0
GRID*               5854               0-2.445283019E-010.0000000000E+00+
*       1.4834001887E+02               0
GRID*               5855               0-2.466037736E-010.0000000000E+00+
*       1.4833023585E+02               0
GRID*               5856               0-2.486792453E-010.0000000000E+00+
*       1.4832045283E+02               0
GRID*               5857               0-2.507547170E-010.0000000000E+00+
*       1.4831066981E+02               0
GRID*               5858               0-2.528301887E-010.0000000000E+00+
*       1.4830088679E+02               0
GRID*               5859               0-2.549056604E-010.0000000000E+00+
*       1.4829110377E+02               0
GRID*               5860               0-2.569811321E-010.0000000000E+00+
*       1.4828132075E+02               0
GRID*               5861               0-2.590566038E-010.0000000000E+00+
*       1.4827153774E+02               0
GRID*               5862               0-2.611320755E-010.0000000000E+00+
*       1.4826175472E+02               0
GRID*               5863               0-2.632075472E-010.0000000000E+00+
*       1.4825197170E+02               0
GRID*               5864               0-2.652830189E-010.0000000000E+00+
*       1.4824218868E+02               0
GRID*               5865               0-2.673584906E-010.0000000000E+00+
*       1.4823240566E+02               0
GRID*               5866               0-2.694339623E-010.0000000000E+00+
*       1.4822262264E+02               0
GRID*               5867               0-2.715094340E-010.0000000000E+00+
*       1.4821283962E+02               0
GRID*               5868               0-2.735849057E-010.0000000000E+00+
*       1.4820305660E+02               0
GRID*               5869               0-2.756603774E-010.0000000000E+00+
*       1.4819327358E+02               0
GRID*               5870               0-2.777358491E-010.0000000000E+00+
*       1.4818349057E+02               0
GRID*               5871               0-2.798113208E-010.0000000000E+00+
*       1.4817370755E+02               0
GRID*               5872               0-2.818867925E-010.0000000000E+00+
*       1.4816392453E+02               0
GRID*               5873               0-2.839622642E-010.0000000000E+00+
*       1.4815414151E+02               0
GRID*               5874               0-2.860377358E-010.0000000000E+00+
*       1.4814435849E+02               0
GRID*               5875               0-2.881132075E-010.0000000000E+00+
*       1.4813457547E+02               0
GRID*               5876               0-2.901886792E-010.0000000000E+00+
*       1.4812479245E+02               0
GRID*               5877               0-2.922641509E-010.0000000000E+00+
*       1.4811500943E+02               0
GRID*               5878               0-2.943396226E-010.0000000000E+00+
*       1.4810522642E+02               0
GRID*               5879               0-2.964150943E-010.0000000000E+00+
*       1.4809544340E+02               0
GRID*               5880               0-2.984905660E-010.0000000000E+00+
*       1.4808566038E+02               0
GRID*               5881               0-3.005660377E-010.0000000000E+00+
*       1.4807587736E+02               0
GRID*               5882               0-3.026415094E-010.0000000000E+00+
*       1.4806609434E+02               0
GRID*               5883               0-3.047169811E-010.0000000000E+00+
*       1.4805631132E+02               0
GRID*               5884               0-3.067924528E-010.0000000000E+00+
*       1.4804652830E+02               0
GRID*               5885               0-3.088679245E-010.0000000000E+00+
*       1.4803674528E+02               0
GRID*               5886               0-3.109433962E-010.0000000000E+00+
*       1.4802696226E+02               0
GRID*               5887               0-3.130188679E-010.0000000000E+00+
*       1.4801717925E+02               0
GRID*               5888               0-3.150943396E-010.0000000000E+00+
*       1.4800739623E+02               0
GRID*               5889               0-3.171698113E-010.0000000000E+00+
*       1.4799761321E+02               0
GRID*               5890               0-3.192452830E-010.0000000000E+00+
*       1.4798783019E+02               0
GRID*               5891               0-3.213207547E-010.0000000000E+00+
*       1.4797804717E+02               0
GRID*               5892               0-3.233962264E-010.0000000000E+00+
*       1.4796826415E+02               0
GRID*               5893               0-3.254716981E-010.0000000000E+00+
*       1.4795848113E+02               0
GRID*               5894               0-3.275471698E-010.0000000000E+00+
*       1.4794869811E+02               0
GRID*               5895               0-3.296226415E-010.0000000000E+00+
*       1.4793891509E+02               0
GRID*               5896               0-3.316981132E-010.0000000000E+00+
*       1.4792913208E+02               0
GRID*               5897               0-3.337735849E-010.0000000000E+00+
*       1.4791934906E+02               0
GRID*               5898               0-3.358490566E-010.0000000000E+00+
*       1.4790956604E+02               0
GRID*               5899               0-3.379245283E-010.0000000000E+00+
*       1.4789978302E+02               0
GRID*               5900               0-3.400000000E-010.0000000000E+00+
*       1.4789000000E+02               0
$*
$* ELEMENT CARDS
$*
$*  Mesh Collector: Concentrated Mass Collector(1)
$*  Mesh: 0d_mesh(1)
CONM2          1       1       0
CONM2          2       2       0
CONM2          3       3       0
CONM2          4       4       0
CONM2          5       5       0
$*  Mesh Collector: Beam Collector(1)
$*  Mesh: 1d_mesh(1)
CBEAM          6       1     966     965  0.0000-1.00000  0.0000
CBEAM          7       1     965     964  0.0000-1.00000  0.0000
CBEAM          8       1     964     963  0.0000-1.00000  0.0000
CBEAM          9       1     963     962  0.0000-1.00000  0.0000
CBEAM         10       1     962     961  0.0000-1.00000  0.0000
CBEAM         11       1     961     960  0.0000-1.00000  0.0000
CBEAM         12       1     960     959  0.0000-1.00000  0.0000
CBEAM         13       1     959     958  0.0000-1.00000  0.0000
CBEAM         14       1     958     957  0.0000-1.00000  0.0000
CBEAM         15       1     957     956  0.0000-1.00000  0.0000
CBEAM         16       1     956     955  0.0000-1.00000  0.0000
CBEAM         17       1     955     954  0.0000-1.00000  0.0000
CBEAM         18       1     954     953  0.0000-1.00000  0.0000
CBEAM         19       1     953     952  0.0000-1.00000  0.0000
CBEAM         20       1     952     951  0.0000-1.00000  0.0000
CBEAM         21       1     951     950  0.0000-1.00000  0.0000
CBEAM         22       1     950     949  0.0000-1.00000  0.0000
CBEAM         23       1     949     948  0.0000-1.00000  0.0000
CBEAM         24       1     948     947  0.0000-1.00000  0.0000
CBEAM         25       1     947     946  0.0000-1.00000  0.0000
CBEAM         26       1     946     945  0.0000-1.00000  0.0000
CBEAM         27       1     945     944  0.0000-1.00000  0.0000
CBEAM         28       1     944     943  0.0000-1.00000  0.0000
CBEAM         29       1     943     942  0.0000-1.00000  0.0000
CBEAM         30       1     942     941  0.0000-1.00000  0.0000
CBEAM         31       1     941     940  0.0000-1.00000  0.0000
CBEAM         32       1     940     939  0.0000-1.00000  0.0000
CBEAM         33       1     939     938  0.0000-1.00000  0.0000
CBEAM         34       1     938     937  0.0000-1.00000  0.0000
CBEAM         35       1     937     936  0.0000-1.00000  0.0000
CBEAM         36       1     936     935  0.0000-1.00000  0.0000
CBEAM         37       1     935     934  0.0000-1.00000  0.0000
CBEAM         38       1     934     933  0.0000-1.00000  0.0000
CBEAM         39       1     933     932  0.0000-1.00000  0.0000
CBEAM         40       1     932     931  0.0000-1.00000  0.0000
CBEAM         41       1     931     930  0.0000-1.00000  0.0000
CBEAM         42       1     930     929  0.0000-1.00000  0.0000
CBEAM         43       1     929     928  0.0000-1.00000  0.0000
CBEAM         44       1     928     927  0.0000-1.00000  0.0000
CBEAM         45       1     927     926  0.0000-1.00000  0.0000
CBEAM         46       1     926     925  0.0000-1.00000  0.0000
CBEAM         47       1     925     924  0.0000-1.00000  0.0000
CBEAM         48       1     924     923  0.0000-1.00000  0.0000
CBEAM         49       1     923     922  0.0000-1.00000  0.0000
CBEAM         50       1     922     921  0.0000-1.00000  0.0000
CBEAM         51       1     921     920  0.0000-1.00000  0.0000
CBEAM         52       1     920     919  0.0000-1.00000  0.0000
CBEAM         53       1     919     918  0.0000-1.00000  0.0000
CBEAM         54       1     918     917  0.0000-1.00000  0.0000
CBEAM         55       1     917     916  0.0000-1.00000  0.0000
CBEAM         56       1     916     915  0.0000-1.00000  0.0000
CBEAM         57       1     915     914  0.0000-1.00000  0.0000
CBEAM         58       1     914     913  0.0000-1.00000  0.0000
CBEAM         59       1     913     912  0.0000-1.00000  0.0000
CBEAM         60       1     912     911  0.0000-1.00000  0.0000
CBEAM         61       1     911     910  0.0000-1.00000  0.0000
CBEAM         62       1     910     909  0.0000-1.00000  0.0000
CBEAM         63       1     909     908  0.0000-1.00000  0.0000
CBEAM         64       1     908     907  0.0000-1.00000  0.0000
CBEAM         65       1     907     906  0.0000-1.00000  0.0000
CBEAM         66       1     906     905  0.0000-1.00000  0.0000
CBEAM         67       1     905     904  0.0000-1.00000  0.0000
CBEAM         68       1     904     903  0.0000-1.00000  0.0000
CBEAM         69       1     903     902  0.0000-1.00000  0.0000
CBEAM         70       1     902     901  0.0000-1.00000  0.0000
CBEAM         71       1     901     900  0.0000-1.00000  0.0000
CBEAM         72       1     900     899  0.0000-1.00000  0.0000
CBEAM         73       1     899     898  0.0000-1.00000  0.0000
CBEAM         74       1     898     897  0.0000-1.00000  0.0000
CBEAM         75       1     897     896  0.0000-1.00000  0.0000
CBEAM         76       1     896     895  0.0000-1.00000  0.0000
CBEAM         77       1     895     894  0.0000-1.00000  0.0000
CBEAM         78       1     894     893  0.0000-1.00000  0.0000
CBEAM         79       1     893     892  0.0000-1.00000  0.0000
CBEAM         80       1     892     891  0.0000-1.00000  0.0000
CBEAM         81       1     891     890  0.0000-1.00000  0.0000
CBEAM         82       1     890     889  0.0000-1.00000  0.0000
CBEAM         83       1     889     888  0.0000-1.00000  0.0000
CBEAM         84       1     888     887  0.0000-1.00000  0.0000
CBEAM         85       1     887     886  0.0000-1.00000  0.0000
CBEAM         86       1     886     885  0.0000-1.00000  0.0000
CBEAM         87       1     885     884  0.0000-1.00000  0.0000
CBEAM         88       1     884     883  0.0000-1.00000  0.0000
CBEAM         89       1     883     882  0.0000-1.00000  0.0000
CBEAM         90       1     882     881  0.0000-1.00000  0.0000
CBEAM         91       1     881     880  0.0000-1.00000  0.0000
CBEAM         92       1     880     879  0.0000-1.00000  0.0000
CBEAM         93       1     879     878  0.0000-1.00000  0.0000
CBEAM         94       1     878     877  0.0000-1.00000  0.0000
CBEAM         95       1     877     876  0.0000-1.00000  0.0000
CBEAM         96       1     876     875  0.0000-1.00000  0.0000
CBEAM         97       1     875     874  0.0000-1.00000  0.0000
CBEAM         98       1     874     873  0.0000-1.00000  0.0000
CBEAM         99       1     873     872  0.0000-1.00000  0.0000
CBEAM        100       1     872     871  0.0000-1.00000  0.0000
CBEAM        101       1     871     870  0.0000-1.00000  0.0000
CBEAM        102       1     870     869  0.0000-1.00000  0.0000
CBEAM        103       1     869     868  0.0000-1.00000  0.0000
CBEAM        104       1     868     867  0.0000-1.00000  0.0000
CBEAM        105       1     867     866  0.0000-1.00000  0.0000
CBEAM        106       1     866     865  0.0000-1.00000  0.0000
CBEAM        107       1     865     864  0.0000-1.00000  0.0000
CBEAM        108       1     864     863  0.0000-1.00000  0.0000
CBEAM        109       1     863     862  0.0000-1.00000  0.0000
CBEAM        110       1     862     861  0.0000-1.00000  0.0000
CBEAM        111       1     861     860  0.0000-1.00000  0.0000
CBEAM        112       1     860     859  0.0000-1.00000  0.0000
CBEAM        113       1     859     858  0.0000-1.00000  0.0000
CBEAM        114       1     858     857  0.0000-1.00000  0.0000
CBEAM        115       1     857     856  0.0000-1.00000  0.0000
CBEAM        116       1     856     855  0.0000-1.00000  0.0000
CBEAM        117       1     855     854  0.0000-1.00000  0.0000
CBEAM        118       1     854     853  0.0000-1.00000  0.0000
CBEAM        119       1     853     852  0.0000-1.00000  0.0000
CBEAM        120       1     852     851  0.0000-1.00000  0.0000
CBEAM        121       1     851     850  0.0000-1.00000  0.0000
CBEAM        122       1     850     849  0.0000-1.00000  0.0000
CBEAM        123       1     849     848  0.0000-1.00000  0.0000
CBEAM        124       1     848     847  0.0000-1.00000  0.0000
CBEAM        125       1     847     846  0.0000-1.00000  0.0000
CBEAM        126       1     846     845  0.0000-1.00000  0.0000
CBEAM        127       1     845     844  0.0000-1.00000  0.0000
CBEAM        128       1     844     843  0.0000-1.00000  0.0000
CBEAM        129       1     843     842  0.0000-1.00000  0.0000
CBEAM        130       1     842     841  0.0000-1.00000  0.0000
CBEAM        131       1     841     840  0.0000-1.00000  0.0000
CBEAM        132       1     840     839  0.0000-1.00000  0.0000
CBEAM        133       1     839     838  0.0000-1.00000  0.0000
CBEAM        134       1     838     837  0.0000-1.00000  0.0000
CBEAM        135       1     837     836  0.0000-1.00000  0.0000
CBEAM        136       1     836     835  0.0000-1.00000  0.0000
CBEAM        137       1     835     834  0.0000-1.00000  0.0000
CBEAM        138       1     834     833  0.0000-1.00000  0.0000
CBEAM        139       1     833     832  0.0000-1.00000  0.0000
CBEAM        140       1     832     831  0.0000-1.00000  0.0000
CBEAM        141       1     831     830  0.0000-1.00000  0.0000
CBEAM        142       1     830     829  0.0000-1.00000  0.0000
CBEAM        143       1     829     828  0.0000-1.00000  0.0000
CBEAM        144       1     828     827  0.0000-1.00000  0.0000
CBEAM        145       1     827     826  0.0000-1.00000  0.0000
CBEAM        146       1     826     825  0.0000-1.00000  0.0000
CBEAM        147       1     825     824  0.0000-1.00000  0.0000
CBEAM        148       1     824     823  0.0000-1.00000  0.0000
CBEAM        149       1     823     822  0.0000-1.00000  0.0000
CBEAM        150       1     822     821  0.0000-1.00000  0.0000
CBEAM        151       1     821     820  0.0000-1.00000  0.0000
CBEAM        152       1     820     819  0.0000-1.00000  0.0000
CBEAM        153       1     819     818  0.0000-1.00000  0.0000
CBEAM        154       1     818     817  0.0000-1.00000  0.0000
CBEAM        155       1     817     816  0.0000-1.00000  0.0000
CBEAM        156       1     816     815  0.0000-1.00000  0.0000
CBEAM        157       1     815     814  0.0000-1.00000  0.0000
CBEAM        158       1     814     813  0.0000-1.00000  0.0000
CBEAM        159       1     813     812  0.0000-1.00000  0.0000
CBEAM        160       1     812     811  0.0000-1.00000  0.0000
CBEAM        161       1     811     810  0.0000-1.00000  0.0000
CBEAM        162       1     810     809  0.0000-1.00000  0.0000
CBEAM        163       1     809     808  0.0000-1.00000  0.0000
CBEAM        164       1     808     807  0.0000-1.00000  0.0000
CBEAM        165       1     807     806  0.0000-1.00000  0.0000
CBEAM        166       1     806     805  0.0000-1.00000  0.0000
CBEAM        167       1     805     804  0.0000-1.00000  0.0000
CBEAM        168       1     804     803  0.0000-1.00000  0.0000
CBEAM        169       1     803     802  0.0000-1.00000  0.0000
CBEAM        170       1     802     801  0.0000-1.00000  0.0000
CBEAM        171       1     801     800  0.0000-1.00000  0.0000
CBEAM        172       1     800     799  0.0000-1.00000  0.0000
CBEAM        173       1     799     798  0.0000-1.00000  0.0000
CBEAM        174       1     798     797  0.0000-1.00000  0.0000
CBEAM        175       1     797     796  0.0000-1.00000  0.0000
CBEAM        176       1     796     795  0.0000-1.00000  0.0000
CBEAM        177       1     795     794  0.0000-1.00000  0.0000
CBEAM        178       1     794     793  0.0000-1.00000  0.0000
CBEAM        179       1     793     792  0.0000-1.00000  0.0000
CBEAM        180       1     792     791  0.0000-1.00000  0.0000
CBEAM        181       1     791     790  0.0000-1.00000  0.0000
CBEAM        182       1     790     789  0.0000-1.00000  0.0000
CBEAM        183       1     789     788  0.0000-1.00000  0.0000
CBEAM        184       1     788     787  0.0000-1.00000  0.0000
CBEAM        185       1     787     786  0.0000-1.00000  0.0000
CBEAM        186       1     786     785  0.0000-1.00000  0.0000
CBEAM        187       1     785     784  0.0000-1.00000  0.0000
CBEAM        188       1     784     783  0.0000-1.00000  0.0000
CBEAM        189       1     783     782  0.0000-1.00000  0.0000
CBEAM        190       1     782     781  0.0000-1.00000  0.0000
CBEAM        191       1     781     780  0.0000-1.00000  0.0000
CBEAM        192       1     780     779  0.0000-1.00000  0.0000
CBEAM        193       1     779     778  0.0000-1.00000  0.0000
CBEAM        194       1     778     777  0.0000-1.00000  0.0000
CBEAM        195       1     777     776  0.0000-1.00000  0.0000
CBEAM        196       1     776     775  0.0000-1.00000  0.0000
CBEAM        197       1     775     774  0.0000-1.00000  0.0000
CBEAM        198       1     774     773  0.0000-1.00000  0.0000
CBEAM        199       1     773     772  0.0000-1.00000  0.0000
CBEAM        200       1     772     771  0.0000-1.00000  0.0000
CBEAM        201       1     771     770  0.0000-1.00000  0.0000
CBEAM        202       1     770     769  0.0000-1.00000  0.0000
CBEAM        203       1     769     768  0.0000-1.00000  0.0000
CBEAM        204       1     768     767  0.0000-1.00000  0.0000
CBEAM        205       1     767     766  0.0000-1.00000  0.0000
CBEAM        206       1     766     765  0.0000-1.00000  0.0000
CBEAM        207       1     765     764  0.0000-1.00000  0.0000
CBEAM        208       1     764     763  0.0000-1.00000  0.0000
CBEAM        209       1     763     762  0.0000-1.00000  0.0000
CBEAM        210       1     762     761  0.0000-1.00000  0.0000
CBEAM        211       1     761     760  0.0000-1.00000  0.0000
CBEAM        212       1     760     759  0.0000-1.00000  0.0000
CBEAM        213       1     759     758  0.0000-1.00000  0.0000
CBEAM        214       1     758     757  0.0000-1.00000  0.0000
CBEAM        215       1     757     756  0.0000-1.00000  0.0000
CBEAM        216       1     756     755  0.0000-1.00000  0.0000
CBEAM        217       1     755     754  0.0000-1.00000  0.0000
CBEAM        218       1     754     753  0.0000-1.00000  0.0000
CBEAM        219       1     753     752  0.0000-1.00000  0.0000
CBEAM        220       1     752     751  0.0000-1.00000  0.0000
CBEAM        221       1     751     750  0.0000-1.00000  0.0000
CBEAM        222       1     750     749  0.0000-1.00000  0.0000
CBEAM        223       1     749     748  0.0000-1.00000  0.0000
CBEAM        224       1     748     747  0.0000-1.00000  0.0000
CBEAM        225       1     747     746  0.0000-1.00000  0.0000
CBEAM        226       1     746     745  0.0000-1.00000  0.0000
CBEAM        227       1     745     744  0.0000-1.00000  0.0000
CBEAM        228       1     744     743  0.0000-1.00000  0.0000
CBEAM        229       1     743     742  0.0000-1.00000  0.0000
CBEAM        230       1     742     741  0.0000-1.00000  0.0000
CBEAM        231       1     741     740  0.0000-1.00000  0.0000
CBEAM        232       1     740     739  0.0000-1.00000  0.0000
CBEAM        233       1     739     738  0.0000-1.00000  0.0000
CBEAM        234       1     738     737  0.0000-1.00000  0.0000
CBEAM        235       1     737     736  0.0000-1.00000  0.0000
CBEAM        236       1     736     735  0.0000-1.00000  0.0000
CBEAM        237       1     735     734  0.0000-1.00000  0.0000
CBEAM        238       1     734     733  0.0000-1.00000  0.0000
CBEAM        239       1     733     732  0.0000-1.00000  0.0000
CBEAM        240       1     732     731  0.0000-1.00000  0.0000
CBEAM        241       1     731     730  0.0000-1.00000  0.0000
CBEAM        242       1     730     729  0.0000-1.00000  0.0000
CBEAM        243       1     729     728  0.0000-1.00000  0.0000
CBEAM        244       1     728     727  0.0000-1.00000  0.0000
CBEAM        245       1     727     726  0.0000-1.00000  0.0000
CBEAM        246       1     726     725  0.0000-1.00000  0.0000
CBEAM        247       1     725     724  0.0000-1.00000  0.0000
CBEAM        248       1     724     723  0.0000-1.00000  0.0000
CBEAM        249       1     723     722  0.0000-1.00000  0.0000
CBEAM        250       1     722     721  0.0000-1.00000  0.0000
CBEAM        251       1     721     720  0.0000-1.00000  0.0000
CBEAM        252       1     720     719  0.0000-1.00000  0.0000
CBEAM        253       1     719     718  0.0000-1.00000  0.0000
CBEAM        254       1     718     717  0.0000-1.00000  0.0000
CBEAM        255       1     717     716  0.0000-1.00000  0.0000
CBEAM        256       1     716     715  0.0000-1.00000  0.0000
CBEAM        257       1     715     714  0.0000-1.00000  0.0000
CBEAM        258       1     714     713  0.0000-1.00000  0.0000
CBEAM        259       1     713     712  0.0000-1.00000  0.0000
CBEAM        260       1     712     711  0.0000-1.00000  0.0000
CBEAM        261       1     711     710  0.0000-1.00000  0.0000
CBEAM        262       1     710     709  0.0000-1.00000  0.0000
CBEAM        263       1     709     708  0.0000-1.00000  0.0000
CBEAM        264       1     708     707  0.0000-1.00000  0.0000
CBEAM        265       1     707     706  0.0000-1.00000  0.0000
CBEAM        266       1     706     705  0.0000-1.00000  0.0000
CBEAM        267       1     705     704  0.0000-1.00000  0.0000
CBEAM        268       1     704     703  0.0000-1.00000  0.0000
CBEAM        269       1     703     702  0.0000-1.00000  0.0000
CBEAM        270       1     702     701  0.0000-1.00000  0.0000
CBEAM        271       1     701     700  0.0000-1.00000  0.0000
CBEAM        272       1     700     699  0.0000-1.00000  0.0000
CBEAM        273       1     699     698  0.0000-1.00000  0.0000
CBEAM        274       1     698     697  0.0000-1.00000  0.0000
CBEAM        275       1     697     696  0.0000-1.00000  0.0000
CBEAM        276       1     696     695  0.0000-1.00000  0.0000
CBEAM        277       1     695     694  0.0000-1.00000  0.0000
CBEAM        278       1     694     693  0.0000-1.00000  0.0000
CBEAM        279       1     693     692  0.0000-1.00000  0.0000
CBEAM        280       1     692     691  0.0000-1.00000  0.0000
CBEAM        281       1     691     690  0.0000-1.00000  0.0000
CBEAM        282       1     690     689  0.0000-1.00000  0.0000
CBEAM        283       1     689     688  0.0000-1.00000  0.0000
CBEAM        284       1     688     687  0.0000-1.00000  0.0000
CBEAM        285       1     687     686  0.0000-1.00000  0.0000
CBEAM        286       1     686     685  0.0000-1.00000  0.0000
CBEAM        287       1     685     684  0.0000-1.00000  0.0000
CBEAM        288       1     684     683  0.0000-1.00000  0.0000
CBEAM        289       1     683     682  0.0000-1.00000  0.0000
CBEAM        290       1     682     681  0.0000-1.00000  0.0000
CBEAM        291       1     681     680  0.0000-1.00000  0.0000
CBEAM        292       1     680     679  0.0000-1.00000  0.0000
CBEAM        293       1     679     678  0.0000-1.00000  0.0000
CBEAM        294       1     678     677  0.0000-1.00000  0.0000
CBEAM        295       1     677     676  0.0000-1.00000  0.0000
CBEAM        296       1     676     675  0.0000-1.00000  0.0000
CBEAM        297       1     675     674  0.0000-1.00000  0.0000
CBEAM        298       1     674     673  0.0000-1.00000  0.0000
CBEAM        299       1     673     672  0.0000-1.00000  0.0000
CBEAM        300       1     672     671  0.0000-1.00000  0.0000
CBEAM        301       1     671     670  0.0000-1.00000  0.0000
CBEAM        302       1     670     669  0.0000-1.00000  0.0000
CBEAM        303       1     669     668  0.0000-1.00000  0.0000
CBEAM        304       1     668     667  0.0000-1.00000  0.0000
CBEAM        305       1     667     666  0.0000-1.00000  0.0000
CBEAM        306       1     666     665  0.0000-1.00000  0.0000
CBEAM        307       1     665     664  0.0000-1.00000  0.0000
CBEAM        308       1     664     663  0.0000-1.00000  0.0000
CBEAM        309       1     663     662  0.0000-1.00000  0.0000
CBEAM        310       1     662     661  0.0000-1.00000  0.0000
CBEAM        311       1     661     660  0.0000-1.00000  0.0000
CBEAM        312       1     660     659  0.0000-1.00000  0.0000
CBEAM        313       1     659     658  0.0000-1.00000  0.0000
CBEAM        314       1     658     657  0.0000-1.00000  0.0000
CBEAM        315       1     657     656  0.0000-1.00000  0.0000
CBEAM        316       1     656     655  0.0000-1.00000  0.0000
CBEAM        317       1     655     654  0.0000-1.00000  0.0000
CBEAM        318       1     654     653  0.0000-1.00000  0.0000
CBEAM        319       1     653     652  0.0000-1.00000  0.0000
CBEAM        320       1     652     651  0.0000-1.00000  0.0000
CBEAM        321       1     651     650  0.0000-1.00000  0.0000
CBEAM        322       1     650     649  0.0000-1.00000  0.0000
CBEAM        323       1     649     648  0.0000-1.00000  0.0000
CBEAM        324       1     648     647  0.0000-1.00000  0.0000
CBEAM        325       1     647     646  0.0000-1.00000  0.0000
CBEAM        326       1     646     645  0.0000-1.00000  0.0000
CBEAM        327       1     645     644  0.0000-1.00000  0.0000
CBEAM        328       1     644     643  0.0000-1.00000  0.0000
CBEAM        329       1     643     642  0.0000-1.00000  0.0000
CBEAM        330       1     642     641  0.0000-1.00000  0.0000
CBEAM        331       1     641     640  0.0000-1.00000  0.0000
CBEAM        332       1     640     639  0.0000-1.00000  0.0000
CBEAM        333       1     639     638  0.0000-1.00000  0.0000
CBEAM        334       1     638     637  0.0000-1.00000  0.0000
CBEAM        335       1     637     636  0.0000-1.00000  0.0000
CBEAM        336       1     636     635  0.0000-1.00000  0.0000
CBEAM        337       1     635     634  0.0000-1.00000  0.0000
CBEAM        338       1     634     633  0.0000-1.00000  0.0000
CBEAM        339       1     633     632  0.0000-1.00000  0.0000
CBEAM        340       1     632     631  0.0000-1.00000  0.0000
CBEAM        341       1     631     630  0.0000-1.00000  0.0000
CBEAM        342       1     630     629  0.0000-1.00000  0.0000
CBEAM        343       1     629     628  0.0000-1.00000  0.0000
CBEAM        344       1     628     627  0.0000-1.00000  0.0000
CBEAM        345       1     627     626  0.0000-1.00000  0.0000
CBEAM        346       1     626     625  0.0000-1.00000  0.0000
CBEAM        347       1     625     624  0.0000-1.00000  0.0000
CBEAM        348       1     624     623  0.0000-1.00000  0.0000
CBEAM        349       1     623     622  0.0000-1.00000  0.0000
CBEAM        350       1     622     621  0.0000-1.00000  0.0000
CBEAM        351       1     621     620  0.0000-1.00000  0.0000
CBEAM        352       1     620     619  0.0000-1.00000  0.0000
CBEAM        353       1     619     618  0.0000-1.00000  0.0000
CBEAM        354       1     618     617  0.0000-1.00000  0.0000
CBEAM        355       1     617     616  0.0000-1.00000  0.0000
CBEAM        356       1     616     615  0.0000-1.00000  0.0000
CBEAM        357       1     615     614  0.0000-1.00000  0.0000
CBEAM        358       1     614     613  0.0000-1.00000  0.0000
CBEAM        359       1     613     612  0.0000-1.00000  0.0000
CBEAM        360       1     612     611  0.0000-1.00000  0.0000
CBEAM        361       1     611     610  0.0000-1.00000  0.0000
CBEAM        362       1     610     609  0.0000-1.00000  0.0000
CBEAM        363       1     609     608  0.0000-1.00000  0.0000
CBEAM        364       1     608     607  0.0000-1.00000  0.0000
CBEAM        365       1     607     606  0.0000-1.00000  0.0000
CBEAM        366       1     606     605  0.0000-1.00000  0.0000
CBEAM        367       1     605     604  0.0000-1.00000  0.0000
CBEAM        368       1     604     603  0.0000-1.00000  0.0000
CBEAM        369       1     603     602  0.0000-1.00000  0.0000
CBEAM        370       1     602     601  0.0000-1.00000  0.0000
CBEAM        371       1     601     600  0.0000-1.00000  0.0000
CBEAM        372       1     600     599  0.0000-1.00000  0.0000
CBEAM        373       1     599     598  0.0000-1.00000  0.0000
CBEAM        374       1     598     597  0.0000-1.00000  0.0000
CBEAM        375       1     597     596  0.0000-1.00000  0.0000
CBEAM        376       1     596     595  0.0000-1.00000  0.0000
CBEAM        377       1     595     594  0.0000-1.00000  0.0000
CBEAM        378       1     594     593  0.0000-1.00000  0.0000
CBEAM        379       1     593     592  0.0000-1.00000  0.0000
CBEAM        380       1     592     591  0.0000-1.00000  0.0000
CBEAM        381       1     591     590  0.0000-1.00000  0.0000
CBEAM        382       1     590     589  0.0000-1.00000  0.0000
CBEAM        383       1     589     588  0.0000-1.00000  0.0000
CBEAM        384       1     588     587  0.0000-1.00000  0.0000
CBEAM        385       1     587     586  0.0000-1.00000  0.0000
CBEAM        386       1     586     585  0.0000-1.00000  0.0000
CBEAM        387       1     585     584  0.0000-1.00000  0.0000
CBEAM        388       1     584     583  0.0000-1.00000  0.0000
CBEAM        389       1     583     582  0.0000-1.00000  0.0000
CBEAM        390       1     582     581  0.0000-1.00000  0.0000
CBEAM        391       1     581     580  0.0000-1.00000  0.0000
CBEAM        392       1     580     579  0.0000-1.00000  0.0000
CBEAM        393       1     579     578  0.0000-1.00000  0.0000
CBEAM        394       1     578     577  0.0000-1.00000  0.0000
CBEAM        395       1     577     576  0.0000-1.00000  0.0000
CBEAM        396       1     576     575  0.0000-1.00000  0.0000
CBEAM        397       1     575     574  0.0000-1.00000  0.0000
CBEAM        398       1     574     573  0.0000-1.00000  0.0000
CBEAM        399       1     573     572  0.0000-1.00000  0.0000
CBEAM        400       1     572     571  0.0000-1.00000  0.0000
CBEAM        401       1     571     570  0.0000-1.00000  0.0000
CBEAM        402       1     570     569  0.0000-1.00000  0.0000
CBEAM        403       1     569     568  0.0000-1.00000  0.0000
CBEAM        404       1     568     567  0.0000-1.00000  0.0000
CBEAM        405       1     567     566  0.0000-1.00000  0.0000
CBEAM        406       1     566     565  0.0000-1.00000  0.0000
CBEAM        407       1     565     564  0.0000-1.00000  0.0000
CBEAM        408       1     564     563  0.0000-1.00000  0.0000
CBEAM        409       1     563     562  0.0000-1.00000  0.0000
CBEAM        410       1     562     561  0.0000-1.00000  0.0000
CBEAM        411       1     561     560  0.0000-1.00000  0.0000
CBEAM        412       1     560     559  0.0000-1.00000  0.0000
CBEAM        413       1     559     558  0.0000-1.00000  0.0000
CBEAM        414       1     558     557  0.0000-1.00000  0.0000
CBEAM        415       1     557     556  0.0000-1.00000  0.0000
CBEAM        416       1     556     555  0.0000-1.00000  0.0000
CBEAM        417       1     555     554  0.0000-1.00000  0.0000
CBEAM        418       1     554     553  0.0000-1.00000  0.0000
CBEAM        419       1     553     552  0.0000-1.00000  0.0000
CBEAM        420       1     552     551  0.0000-1.00000  0.0000
CBEAM        421       1     551     550  0.0000-1.00000  0.0000
CBEAM        422       1     550     549  0.0000-1.00000  0.0000
CBEAM        423       1     549     548  0.0000-1.00000  0.0000
CBEAM        424       1     548     547  0.0000-1.00000  0.0000
CBEAM        425       1     547     546  0.0000-1.00000  0.0000
CBEAM        426       1     546     545  0.0000-1.00000  0.0000
CBEAM        427       1     545     544  0.0000-1.00000  0.0000
CBEAM        428       1     544     543  0.0000-1.00000  0.0000
CBEAM        429       1     543     542  0.0000-1.00000  0.0000
CBEAM        430       1     542     541  0.0000-1.00000  0.0000
CBEAM        431       1     541     540  0.0000-1.00000  0.0000
CBEAM        432       1     540     539  0.0000-1.00000  0.0000
CBEAM        433       1     539     538  0.0000-1.00000  0.0000
CBEAM        434       1     538     537  0.0000-1.00000  0.0000
CBEAM        435       1     537     536  0.0000-1.00000  0.0000
CBEAM        436       1     536     535  0.0000-1.00000  0.0000
CBEAM        437       1     535     534  0.0000-1.00000  0.0000
CBEAM        438       1     534     533  0.0000-1.00000  0.0000
CBEAM        439       1     533     532  0.0000-1.00000  0.0000
CBEAM        440       1     532     531  0.0000-1.00000  0.0000
CBEAM        441       1     531     530  0.0000-1.00000  0.0000
CBEAM        442       1     530     529  0.0000-1.00000  0.0000
CBEAM        443       1     529     528  0.0000-1.00000  0.0000
CBEAM        444       1     528     527  0.0000-1.00000  0.0000
CBEAM        445       1     527     526  0.0000-1.00000  0.0000
CBEAM        446       1     526     525  0.0000-1.00000  0.0000
CBEAM        447       1     525     524  0.0000-1.00000  0.0000
CBEAM        448       1     524     523  0.0000-1.00000  0.0000
CBEAM        449       1     523     522  0.0000-1.00000  0.0000
CBEAM        450       1     522     521  0.0000-1.00000  0.0000
CBEAM        451       1     521     520  0.0000-1.00000  0.0000
CBEAM        452       1     520     519  0.0000-1.00000  0.0000
CBEAM        453       1     519     518  0.0000-1.00000  0.0000
CBEAM        454       1     518     517  0.0000-1.00000  0.0000
CBEAM        455       1     517     516  0.0000-1.00000  0.0000
CBEAM        456       1     516     515  0.0000-1.00000  0.0000
CBEAM        457       1     515     514  0.0000-1.00000  0.0000
CBEAM        458       1     514     513  0.0000-1.00000  0.0000
CBEAM        459       1     513     512  0.0000-1.00000  0.0000
CBEAM        460       1     512     511  0.0000-1.00000  0.0000
CBEAM        461       1     511     510  0.0000-1.00000  0.0000
CBEAM        462       1     510     509  0.0000-1.00000  0.0000
CBEAM        463       1     509     508  0.0000-1.00000  0.0000
CBEAM        464       1     508     507  0.0000-1.00000  0.0000
CBEAM        465       1     507     506  0.0000-1.00000  0.0000
CBEAM        466       1     506     505  0.0000-1.00000  0.0000
CBEAM        467       1     505     504  0.0000-1.00000  0.0000
CBEAM        468       1     504     503  0.0000-1.00000  0.0000
CBEAM        469       1     503     502  0.0000-1.00000  0.0000
CBEAM        470       1     502     501  0.0000-1.00000  0.0000
CBEAM        471       1     501     500  0.0000-1.00000  0.0000
CBEAM        472       1     500     499  0.0000-1.00000  0.0000
CBEAM        473       1     499     498  0.0000-1.00000  0.0000
CBEAM        474       1     498     497  0.0000-1.00000  0.0000
CBEAM        475       1     497     496  0.0000-1.00000  0.0000
CBEAM        476       1     496     495  0.0000-1.00000  0.0000
CBEAM        477       1     495     494  0.0000-1.00000  0.0000
CBEAM        478       1     494     493  0.0000-1.00000  0.0000
CBEAM        479       1     493     492  0.0000-1.00000  0.0000
CBEAM        480       1     492     491  0.0000-1.00000  0.0000
CBEAM        481       1     491     490  0.0000-1.00000  0.0000
CBEAM        482       1     490     489  0.0000-1.00000  0.0000
CBEAM        483       1     489     488  0.0000-1.00000  0.0000
CBEAM        484       1     488     487  0.0000-1.00000  0.0000
CBEAM        485       1     487     486  0.0000-1.00000  0.0000
CBEAM        486       1     486     485  0.0000-1.00000  0.0000
CBEAM        487       1     485     484  0.0000-1.00000  0.0000
CBEAM        488       1     484     483  0.0000-1.00000  0.0000
CBEAM        489       1     483     482  0.0000-1.00000  0.0000
CBEAM        490       1     482     481  0.0000-1.00000  0.0000
CBEAM        491       1     481     480  0.0000-1.00000  0.0000
CBEAM        492       1     480     479  0.0000-1.00000  0.0000
CBEAM        493       1     479     478  0.0000-1.00000  0.0000
CBEAM        494       1     478     477  0.0000-1.00000  0.0000
CBEAM        495       1     477     476  0.0000-1.00000  0.0000
CBEAM        496       1     476     475  0.0000-1.00000  0.0000
CBEAM        497       1     475     474  0.0000-1.00000  0.0000
CBEAM        498       1     474     473  0.0000-1.00000  0.0000
CBEAM        499       1     473     472  0.0000-1.00000  0.0000
CBEAM        500       1     472     471  0.0000-1.00000  0.0000
CBEAM        501       1     471     470  0.0000-1.00000  0.0000
CBEAM        502       1     470     469  0.0000-1.00000  0.0000
CBEAM        503       1     469     468  0.0000-1.00000  0.0000
CBEAM        504       1     468     467  0.0000-1.00000  0.0000
CBEAM        505       1     467     466  0.0000-1.00000  0.0000
CBEAM        506       1     466     465  0.0000-1.00000  0.0000
CBEAM        507       1     465     464  0.0000-1.00000  0.0000
CBEAM        508       1     464     463  0.0000-1.00000  0.0000
CBEAM        509       1     463     462  0.0000-1.00000  0.0000
CBEAM        510       1     462     461  0.0000-1.00000  0.0000
CBEAM        511       1     461     460  0.0000-1.00000  0.0000
CBEAM        512       1     460     459  0.0000-1.00000  0.0000
CBEAM        513       1     459     458  0.0000-1.00000  0.0000
CBEAM        514       1     458     457  0.0000-1.00000  0.0000
CBEAM        515       1     457     456  0.0000-1.00000  0.0000
CBEAM        516       1     456     455  0.0000-1.00000  0.0000
CBEAM        517       1     455     454  0.0000-1.00000  0.0000
CBEAM        518       1     454     453  0.0000-1.00000  0.0000
CBEAM        519       1     453     452  0.0000-1.00000  0.0000
CBEAM        520       1     452     451  0.0000-1.00000  0.0000
CBEAM        521       1     451     450  0.0000-1.00000  0.0000
CBEAM        522       1     450     449  0.0000-1.00000  0.0000
CBEAM        523       1     449     448  0.0000-1.00000  0.0000
CBEAM        524       1     448     447  0.0000-1.00000  0.0000
CBEAM        525       1     447     446  0.0000-1.00000  0.0000
CBEAM        526       1     446     445  0.0000-1.00000  0.0000
CBEAM        527       1     445     444  0.0000-1.00000  0.0000
CBEAM        528       1     444     443  0.0000-1.00000  0.0000
CBEAM        529       1     443     442  0.0000-1.00000  0.0000
CBEAM        530       1     442     441  0.0000-1.00000  0.0000
CBEAM        531       1     441     440  0.0000-1.00000  0.0000
CBEAM        532       1     440     439  0.0000-1.00000  0.0000
CBEAM        533       1     439     438  0.0000-1.00000  0.0000
CBEAM        534       1     438     437  0.0000-1.00000  0.0000
CBEAM        535       1     437     436  0.0000-1.00000  0.0000
CBEAM        536       1     436     435  0.0000-1.00000  0.0000
CBEAM        537       1     435     434  0.0000-1.00000  0.0000
CBEAM        538       1     434     433  0.0000-1.00000  0.0000
CBEAM        539       1     433     432  0.0000-1.00000  0.0000
CBEAM        540       1     432     431  0.0000-1.00000  0.0000
CBEAM        541       1     431     430  0.0000-1.00000  0.0000
CBEAM        542       1     430     429  0.0000-1.00000  0.0000
CBEAM        543       1     429     428  0.0000-1.00000  0.0000
CBEAM        544       1     428     427  0.0000-1.00000  0.0000
CBEAM        545       1     427     426  0.0000-1.00000  0.0000
CBEAM        546       1     426     425  0.0000-1.00000  0.0000
CBEAM        547       1     425     424  0.0000-1.00000  0.0000
CBEAM        548       1     424     423  0.0000-1.00000  0.0000
CBEAM        549       1     423     422  0.0000-1.00000  0.0000
CBEAM        550       1     422     421  0.0000-1.00000  0.0000
CBEAM        551       1     421     420  0.0000-1.00000  0.0000
CBEAM        552       1     420     419  0.0000-1.00000  0.0000
CBEAM        553       1     419     418  0.0000-1.00000  0.0000
CBEAM        554       1     418     417  0.0000-1.00000  0.0000
CBEAM        555       1     417     416  0.0000-1.00000  0.0000
CBEAM        556       1     416     415  0.0000-1.00000  0.0000
CBEAM        557       1     415     414  0.0000-1.00000  0.0000
CBEAM        558       1     414     413  0.0000-1.00000  0.0000
CBEAM        559       1     413     412  0.0000-1.00000  0.0000
CBEAM        560       1     412     411  0.0000-1.00000  0.0000
CBEAM        561       1     411     410  0.0000-1.00000  0.0000
CBEAM        562       1     410     409  0.0000-1.00000  0.0000
CBEAM        563       1     409     408  0.0000-1.00000  0.0000
CBEAM        564       1     408     407  0.0000-1.00000  0.0000
CBEAM        565       1     407     406  0.0000-1.00000  0.0000
CBEAM        566       1     406     405  0.0000-1.00000  0.0000
CBEAM        567       1     405     404  0.0000-1.00000  0.0000
CBEAM        568       1     404     403  0.0000-1.00000  0.0000
CBEAM        569       1     403     402  0.0000-1.00000  0.0000
CBEAM        570       1     402     401  0.0000-1.00000  0.0000
CBEAM        571       1     401     400  0.0000-1.00000  0.0000
CBEAM        572       1     400     399  0.0000-1.00000  0.0000
CBEAM        573       1     399     398  0.0000-1.00000  0.0000
CBEAM        574       1     398     397  0.0000-1.00000  0.0000
CBEAM        575       1     397     396  0.0000-1.00000  0.0000
CBEAM        576       1     396     395  0.0000-1.00000  0.0000
CBEAM        577       1     395     394  0.0000-1.00000  0.0000
CBEAM        578       1     394     393  0.0000-1.00000  0.0000
CBEAM        579       1     393     392  0.0000-1.00000  0.0000
CBEAM        580       1     392     391  0.0000-1.00000  0.0000
CBEAM        581       1     391     390  0.0000-1.00000  0.0000
CBEAM        582       1     390     389  0.0000-1.00000  0.0000
CBEAM        583       1     389     388  0.0000-1.00000  0.0000
CBEAM        584       1     388     387  0.0000-1.00000  0.0000
CBEAM        585       1     387     386  0.0000-1.00000  0.0000
CBEAM        586       1     386     385  0.0000-1.00000  0.0000
CBEAM        587       1     385     384  0.0000-1.00000  0.0000
CBEAM        588       1     384     383  0.0000-1.00000  0.0000
CBEAM        589       1     383     382  0.0000-1.00000  0.0000
CBEAM        590       1     382     381  0.0000-1.00000  0.0000
CBEAM        591       1     381     380  0.0000-1.00000  0.0000
CBEAM        592       1     380     379  0.0000-1.00000  0.0000
CBEAM        593       1     379     378  0.0000-1.00000  0.0000
CBEAM        594       1     378     377  0.0000-1.00000  0.0000
CBEAM        595       1     377     376  0.0000-1.00000  0.0000
CBEAM        596       1     376     375  0.0000-1.00000  0.0000
CBEAM        597       1     375     374  0.0000-1.00000  0.0000
CBEAM        598       1     374     373  0.0000-1.00000  0.0000
CBEAM        599       1     373     372  0.0000-1.00000  0.0000
CBEAM        600       1     372     371  0.0000-1.00000  0.0000
CBEAM        601       1     371     370  0.0000-1.00000  0.0000
CBEAM        602       1     370     369  0.0000-1.00000  0.0000
CBEAM        603       1     369     368  0.0000-1.00000  0.0000
CBEAM        604       1     368     367  0.0000-1.00000  0.0000
CBEAM        605       1     367     366  0.0000-1.00000  0.0000
CBEAM        606       1     366     365  0.0000-1.00000  0.0000
CBEAM        607       1     365     364  0.0000-1.00000  0.0000
CBEAM        608       1     364     363  0.0000-1.00000  0.0000
CBEAM        609       1     363     362  0.0000-1.00000  0.0000
CBEAM        610       1     362     361  0.0000-1.00000  0.0000
CBEAM        611       1     361     360  0.0000-1.00000  0.0000
CBEAM        612       1     360     359  0.0000-1.00000  0.0000
CBEAM        613       1     359     358  0.0000-1.00000  0.0000
CBEAM        614       1     358     357  0.0000-1.00000  0.0000
CBEAM        615       1     357     356  0.0000-1.00000  0.0000
CBEAM        616       1     356     355  0.0000-1.00000  0.0000
CBEAM        617       1     355     354  0.0000-1.00000  0.0000
CBEAM        618       1     354     353  0.0000-1.00000  0.0000
CBEAM        619       1     353     352  0.0000-1.00000  0.0000
CBEAM        620       1     352     351  0.0000-1.00000  0.0000
CBEAM        621       1     351     350  0.0000-1.00000  0.0000
CBEAM        622       1     350     349  0.0000-1.00000  0.0000
CBEAM        623       1     349     348  0.0000-1.00000  0.0000
CBEAM        624       1     348     347  0.0000-1.00000  0.0000
CBEAM        625       1     347     346  0.0000-1.00000  0.0000
CBEAM        626       1     346     345  0.0000-1.00000  0.0000
CBEAM        627       1     345     344  0.0000-1.00000  0.0000
CBEAM        628       1     344     343  0.0000-1.00000  0.0000
CBEAM        629       1     343     342  0.0000-1.00000  0.0000
CBEAM        630       1     342     341  0.0000-1.00000  0.0000
CBEAM        631       1     341     340  0.0000-1.00000  0.0000
CBEAM        632       1     340     339  0.0000-1.00000  0.0000
CBEAM        633       1     339     338  0.0000-1.00000  0.0000
CBEAM        634       1     338     337  0.0000-1.00000  0.0000
CBEAM        635       1     337     336  0.0000-1.00000  0.0000
CBEAM        636       1     336     335  0.0000-1.00000  0.0000
CBEAM        637       1     335     334  0.0000-1.00000  0.0000
CBEAM        638       1     334     333  0.0000-1.00000  0.0000
CBEAM        639       1     333     332  0.0000-1.00000  0.0000
CBEAM        640       1     332     331  0.0000-1.00000  0.0000
CBEAM        641       1     331     330  0.0000-1.00000  0.0000
CBEAM        642       1     330     329  0.0000-1.00000  0.0000
CBEAM        643       1     329     328  0.0000-1.00000  0.0000
CBEAM        644       1     328     327  0.0000-1.00000  0.0000
CBEAM        645       1     327     326  0.0000-1.00000  0.0000
CBEAM        646       1     326     325  0.0000-1.00000  0.0000
CBEAM        647       1     325     324  0.0000-1.00000  0.0000
CBEAM        648       1     324     323  0.0000-1.00000  0.0000
CBEAM        649       1     323     322  0.0000-1.00000  0.0000
CBEAM        650       1     322     321  0.0000-1.00000  0.0000
CBEAM        651       1     321     320  0.0000-1.00000  0.0000
CBEAM        652       1     320     319  0.0000-1.00000  0.0000
CBEAM        653       1     319     318  0.0000-1.00000  0.0000
CBEAM        654       1     318     317  0.0000-1.00000  0.0000
CBEAM        655       1     317     316  0.0000-1.00000  0.0000
CBEAM        656       1     316     315  0.0000-1.00000  0.0000
CBEAM        657       1     315     314  0.0000-1.00000  0.0000
CBEAM        658       1     314     313  0.0000-1.00000  0.0000
CBEAM        659       1     313     312  0.0000-1.00000  0.0000
CBEAM        660       1     312     311  0.0000-1.00000  0.0000
CBEAM        661       1     311     310  0.0000-1.00000  0.0000
CBEAM        662       1     310     309  0.0000-1.00000  0.0000
CBEAM        663       1     309     308  0.0000-1.00000  0.0000
CBEAM        664       1     308     307  0.0000-1.00000  0.0000
CBEAM        665       1     307     306  0.0000-1.00000  0.0000
CBEAM        666       1     306     305  0.0000-1.00000  0.0000
CBEAM        667       1     305     304  0.0000-1.00000  0.0000
CBEAM        668       1     304     303  0.0000-1.00000  0.0000
CBEAM        669       1     303     302  0.0000-1.00000  0.0000
CBEAM        670       1     302     301  0.0000-1.00000  0.0000
CBEAM        671       1     301     300  0.0000-1.00000  0.0000
CBEAM        672       1     300     299  0.0000-1.00000  0.0000
CBEAM        673       1     299     298  0.0000-1.00000  0.0000
CBEAM        674       1     298     297  0.0000-1.00000  0.0000
CBEAM        675       1     297     296  0.0000-1.00000  0.0000
CBEAM        676       1     296     295  0.0000-1.00000  0.0000
CBEAM        677       1     295     294  0.0000-1.00000  0.0000
CBEAM        678       1     294     293  0.0000-1.00000  0.0000
CBEAM        679       1     293     292  0.0000-1.00000  0.0000
CBEAM        680       1     292     291  0.0000-1.00000  0.0000
CBEAM        681       1     291     290  0.0000-1.00000  0.0000
CBEAM        682       1     290     289  0.0000-1.00000  0.0000
CBEAM        683       1     289     288  0.0000-1.00000  0.0000
CBEAM        684       1     288     287  0.0000-1.00000  0.0000
CBEAM        685       1     287     286  0.0000-1.00000  0.0000
CBEAM        686       1     286     285  0.0000-1.00000  0.0000
CBEAM        687       1     285     284  0.0000-1.00000  0.0000
CBEAM        688       1     284     283  0.0000-1.00000  0.0000
CBEAM        689       1     283     282  0.0000-1.00000  0.0000
CBEAM        690       1     282     281  0.0000-1.00000  0.0000
CBEAM        691       1     281     280  0.0000-1.00000  0.0000
CBEAM        692       1     280     279  0.0000-1.00000  0.0000
CBEAM        693       1     279     278  0.0000-1.00000  0.0000
CBEAM        694       1     278     277  0.0000-1.00000  0.0000
CBEAM        695       1     277     276  0.0000-1.00000  0.0000
CBEAM        696       1     276     275  0.0000-1.00000  0.0000
CBEAM        697       1     275     274  0.0000-1.00000  0.0000
CBEAM        698       1     274     273  0.0000-1.00000  0.0000
CBEAM        699       1     273     272  0.0000-1.00000  0.0000
CBEAM        700       1     272     271  0.0000-1.00000  0.0000
CBEAM        701       1     271     270  0.0000-1.00000  0.0000
CBEAM        702       1     270     269  0.0000-1.00000  0.0000
CBEAM        703       1     269     268  0.0000-1.00000  0.0000
CBEAM        704       1     268     267  0.0000-1.00000  0.0000
CBEAM        705       1     267     266  0.0000-1.00000  0.0000
CBEAM        706       1     266     265  0.0000-1.00000  0.0000
CBEAM        707       1     265     264  0.0000-1.00000  0.0000
CBEAM        708       1     264     263  0.0000-1.00000  0.0000
CBEAM        709       1     263     262  0.0000-1.00000  0.0000
CBEAM        710       1     262     261  0.0000-1.00000  0.0000
CBEAM        711       1     261     260  0.0000-1.00000  0.0000
CBEAM        712       1     260     259  0.0000-1.00000  0.0000
CBEAM        713       1     259     258  0.0000-1.00000  0.0000
CBEAM        714       1     258     257  0.0000-1.00000  0.0000
CBEAM        715       1     257     256  0.0000-1.00000  0.0000
CBEAM        716       1     256     255  0.0000-1.00000  0.0000
CBEAM        717       1     255     254  0.0000-1.00000  0.0000
CBEAM        718       1     254     253  0.0000-1.00000  0.0000
CBEAM        719       1     253     252  0.0000-1.00000  0.0000
CBEAM        720       1     252     251  0.0000-1.00000  0.0000
CBEAM        721       1     251     250  0.0000-1.00000  0.0000
CBEAM        722       1     250     249  0.0000-1.00000  0.0000
CBEAM        723       1     249     248  0.0000-1.00000  0.0000
CBEAM        724       1     248     247  0.0000-1.00000  0.0000
CBEAM        725       1     247     246  0.0000-1.00000  0.0000
CBEAM        726       1     246     245  0.0000-1.00000  0.0000
CBEAM        727       1     245     244  0.0000-1.00000  0.0000
CBEAM        728       1     244     243  0.0000-1.00000  0.0000
CBEAM        729       1     243     242  0.0000-1.00000  0.0000
CBEAM        730       1     242     241  0.0000-1.00000  0.0000
CBEAM        731       1     241     240  0.0000-1.00000  0.0000
CBEAM        732       1     240     239  0.0000-1.00000  0.0000
CBEAM        733       1     239     238  0.0000-1.00000  0.0000
CBEAM        734       1     238     237  0.0000-1.00000  0.0000
CBEAM        735       1     237     236  0.0000-1.00000  0.0000
CBEAM        736       1     236     235  0.0000-1.00000  0.0000
CBEAM        737       1     235     234  0.0000-1.00000  0.0000
CBEAM        738       1     234     233  0.0000-1.00000  0.0000
CBEAM        739       1     233     232  0.0000-1.00000  0.0000
CBEAM        740       1     232     231  0.0000-1.00000  0.0000
CBEAM        741       1     231     230  0.0000-1.00000  0.0000
CBEAM        742       1     230     229  0.0000-1.00000  0.0000
CBEAM        743       1     229     228  0.0000-1.00000  0.0000
CBEAM        744       1     228     227  0.0000-1.00000  0.0000
CBEAM        745       1     227     226  0.0000-1.00000  0.0000
CBEAM        746       1     226     225  0.0000-1.00000  0.0000
CBEAM        747       1     225     224  0.0000-1.00000  0.0000
CBEAM        748       1     224     223  0.0000-1.00000  0.0000
CBEAM        749       1     223     222  0.0000-1.00000  0.0000
CBEAM        750       1     222     221  0.0000-1.00000  0.0000
CBEAM        751       1     221     220  0.0000-1.00000  0.0000
CBEAM        752       1     220     219  0.0000-1.00000  0.0000
CBEAM        753       1     219     218  0.0000-1.00000  0.0000
CBEAM        754       1     218     217  0.0000-1.00000  0.0000
CBEAM        755       1     217     216  0.0000-1.00000  0.0000
CBEAM        756       1     216     215  0.0000-1.00000  0.0000
CBEAM        757       1     215     214  0.0000-1.00000  0.0000
CBEAM        758       1     214     213  0.0000-1.00000  0.0000
CBEAM        759       1     213     212  0.0000-1.00000  0.0000
CBEAM        760       1     212     211  0.0000-1.00000  0.0000
CBEAM        761       1     211     210  0.0000-1.00000  0.0000
CBEAM        762       1     210     209  0.0000-1.00000  0.0000
CBEAM        763       1     209     208  0.0000-1.00000  0.0000
CBEAM        764       1     208     207  0.0000-1.00000  0.0000
CBEAM        765       1     207     206  0.0000-1.00000  0.0000
CBEAM        766       1     206     205  0.0000-1.00000  0.0000
CBEAM        767       1     205     204  0.0000-1.00000  0.0000
CBEAM        768       1     204     203  0.0000-1.00000  0.0000
CBEAM        769       1     203     202  0.0000-1.00000  0.0000
CBEAM        770       1     202     201  0.0000-1.00000  0.0000
CBEAM        771       1     201     200  0.0000-1.00000  0.0000
CBEAM        772       1     200     199  0.0000-1.00000  0.0000
CBEAM        773       1     199     198  0.0000-1.00000  0.0000
CBEAM        774       1     198     197  0.0000-1.00000  0.0000
CBEAM        775       1     197     196  0.0000-1.00000  0.0000
CBEAM        776       1     196     195  0.0000-1.00000  0.0000
CBEAM        777       1     195     194  0.0000-1.00000  0.0000
CBEAM        778       1     194     193  0.0000-1.00000  0.0000
CBEAM        779       1     193     192  0.0000-1.00000  0.0000
CBEAM        780       1     192     191  0.0000-1.00000  0.0000
CBEAM        781       1     191     190  0.0000-1.00000  0.0000
CBEAM        782       1     190     189  0.0000-1.00000  0.0000
CBEAM        783       1     189     188  0.0000-1.00000  0.0000
CBEAM        784       1     188     187  0.0000-1.00000  0.0000
CBEAM        785       1     187     186  0.0000-1.00000  0.0000
CBEAM        786       1     186     185  0.0000-1.00000  0.0000
CBEAM        787       1     185     184  0.0000-1.00000  0.0000
CBEAM        788       1     184     183  0.0000-1.00000  0.0000
CBEAM        789       1     183     182  0.0000-1.00000  0.0000
CBEAM        790       1     182     181  0.0000-1.00000  0.0000
CBEAM        791       1     181     180  0.0000-1.00000  0.0000
CBEAM        792       1     180     179  0.0000-1.00000  0.0000
CBEAM        793       1     179     178  0.0000-1.00000  0.0000
CBEAM        794       1     178     177  0.0000-1.00000  0.0000
CBEAM        795       1     177     176  0.0000-1.00000  0.0000
CBEAM        796       1     176     175  0.0000-1.00000  0.0000
CBEAM        797       1     175     174  0.0000-1.00000  0.0000
CBEAM        798       1     174     173  0.0000-1.00000  0.0000
CBEAM        799       1     173     172  0.0000-1.00000  0.0000
CBEAM        800       1     172     171  0.0000-1.00000  0.0000
CBEAM        801       1     171     170  0.0000-1.00000  0.0000
CBEAM        802       1     170     169  0.0000-1.00000  0.0000
CBEAM        803       1     169     168  0.0000-1.00000  0.0000
CBEAM        804       1     168     167  0.0000-1.00000  0.0000
CBEAM        805       1     167     166  0.0000-1.00000  0.0000
CBEAM        806       1     166     165  0.0000-1.00000  0.0000
CBEAM        807       1     165     164  0.0000-1.00000  0.0000
CBEAM        808       1     164     163  0.0000-1.00000  0.0000
CBEAM        809       1     163     162  0.0000-1.00000  0.0000
CBEAM        810       1     162     161  0.0000-1.00000  0.0000
CBEAM        811       1     161     160  0.0000-1.00000  0.0000
CBEAM        812       1     160     159  0.0000-1.00000  0.0000
CBEAM        813       1     159     158  0.0000-1.00000  0.0000
CBEAM        814       1     158     157  0.0000-1.00000  0.0000
CBEAM        815       1     157     156  0.0000-1.00000  0.0000
CBEAM        816       1     156     155  0.0000-1.00000  0.0000
CBEAM        817       1     155     154  0.0000-1.00000  0.0000
CBEAM        818       1     154     153  0.0000-1.00000  0.0000
CBEAM        819       1     153     152  0.0000-1.00000  0.0000
CBEAM        820       1     152     151  0.0000-1.00000  0.0000
CBEAM        821       1     151     150  0.0000-1.00000  0.0000
CBEAM        822       1     150     149  0.0000-1.00000  0.0000
CBEAM        823       1     149     148  0.0000-1.00000  0.0000
CBEAM        824       1     148     147  0.0000-1.00000  0.0000
CBEAM        825       1     147     146  0.0000-1.00000  0.0000
CBEAM        826       1     146     145  0.0000-1.00000  0.0000
CBEAM        827       1     145     144  0.0000-1.00000  0.0000
CBEAM        828       1     144     143  0.0000-1.00000  0.0000
CBEAM        829       1     143     142  0.0000-1.00000  0.0000
CBEAM        830       1     142     141  0.0000-1.00000  0.0000
CBEAM        831       1     141     140  0.0000-1.00000  0.0000
CBEAM        832       1     140     139  0.0000-1.00000  0.0000
CBEAM        833       1     139     138  0.0000-1.00000  0.0000
CBEAM        834       1     138     137  0.0000-1.00000  0.0000
CBEAM        835       1     137     136  0.0000-1.00000  0.0000
CBEAM        836       1     136     135  0.0000-1.00000  0.0000
CBEAM        837       1     135     134  0.0000-1.00000  0.0000
CBEAM        838       1     134     133  0.0000-1.00000  0.0000
CBEAM        839       1     133     132  0.0000-1.00000  0.0000
CBEAM        840       1     132     131  0.0000-1.00000  0.0000
CBEAM        841       1     131     130  0.0000-1.00000  0.0000
CBEAM        842       1     130     129  0.0000-1.00000  0.0000
CBEAM        843       1     129     128  0.0000-1.00000  0.0000
CBEAM        844       1     128     127  0.0000-1.00000  0.0000
CBEAM        845       1     127     126  0.0000-1.00000  0.0000
CBEAM        846       1     126     125  0.0000-1.00000  0.0000
CBEAM        847       1     125     124  0.0000-1.00000  0.0000
CBEAM        848       1     124     123  0.0000-1.00000  0.0000
CBEAM        849       1     123     122  0.0000-1.00000  0.0000
CBEAM        850       1     122     121  0.0000-1.00000  0.0000
CBEAM        851       1     121     120  0.0000-1.00000  0.0000
CBEAM        852       1     120     119  0.0000-1.00000  0.0000
CBEAM        853       1     119     118  0.0000-1.00000  0.0000
CBEAM        854       1     118     117  0.0000-1.00000  0.0000
CBEAM        855       1     117     116  0.0000-1.00000  0.0000
CBEAM        856       1     116     115  0.0000-1.00000  0.0000
CBEAM        857       1     115     114  0.0000-1.00000  0.0000
CBEAM        858       1     114     113  0.0000-1.00000  0.0000
CBEAM        859       1     113     112  0.0000-1.00000  0.0000
CBEAM        860       1     112     111  0.0000-1.00000  0.0000
CBEAM        861       1     111     110  0.0000-1.00000  0.0000
CBEAM        862       1     110     109  0.0000-1.00000  0.0000
CBEAM        863       1     109     108  0.0000-1.00000  0.0000
CBEAM        864       1     108     107  0.0000-1.00000  0.0000
CBEAM        865       1     107     106  0.0000-1.00000  0.0000
CBEAM        866       1     106     105  0.0000-1.00000  0.0000
CBEAM        867       1     105     104  0.0000-1.00000  0.0000
CBEAM        868       1     104     103  0.0000-1.00000  0.0000
CBEAM        869       1     103     102  0.0000-1.00000  0.0000
CBEAM        870       1     102     101  0.0000-1.00000  0.0000
CBEAM        871       1     101     100  0.0000-1.00000  0.0000
CBEAM        872       1     100      99  0.0000-1.00000  0.0000
CBEAM        873       1      99      98  0.0000-1.00000  0.0000
CBEAM        874       1      98      97  0.0000-1.00000  0.0000
CBEAM        875       1      97      96  0.0000-1.00000  0.0000
CBEAM        876       1      96      95  0.0000-1.00000  0.0000
CBEAM        877       1      95      94  0.0000-1.00000  0.0000
CBEAM        878       1      94      93  0.0000-1.00000  0.0000
CBEAM        879       1      93      92  0.0000-1.00000  0.0000
CBEAM        880       1      92      91  0.0000-1.00000  0.0000
CBEAM        881       1      91      90  0.0000-1.00000  0.0000
CBEAM        882       1      90      89  0.0000-1.00000  0.0000
CBEAM        883       1      89      88  0.0000-1.00000  0.0000
CBEAM        884       1      88      87  0.0000-1.00000  0.0000
CBEAM        885       1      87      86  0.0000-1.00000  0.0000
CBEAM        886       1      86      85  0.0000-1.00000  0.0000
CBEAM        887       1      85      84  0.0000-1.00000  0.0000
CBEAM        888       1      84      83  0.0000-1.00000  0.0000
CBEAM        889       1      83      82  0.0000-1.00000  0.0000
CBEAM        890       1      82      81  0.0000-1.00000  0.0000
CBEAM        891       1      81      80  0.0000-1.00000  0.0000
CBEAM        892       1      80      79  0.0000-1.00000  0.0000
CBEAM        893       1      79      78  0.0000-1.00000  0.0000
CBEAM        894       1      78      77  0.0000-1.00000  0.0000
CBEAM        895       1      77      76  0.0000-1.00000  0.0000
CBEAM        896       1      76      75  0.0000-1.00000  0.0000
CBEAM        897       1      75      74  0.0000-1.00000  0.0000
CBEAM        898       1      74      73  0.0000-1.00000  0.0000
CBEAM        899       1      73      72  0.0000-1.00000  0.0000
CBEAM        900       1      72      71  0.0000-1.00000  0.0000
CBEAM        901       1      71      70  0.0000-1.00000  0.0000
CBEAM        902       1      70      69  0.0000-1.00000  0.0000
CBEAM        903       1      69      68  0.0000-1.00000  0.0000
CBEAM        904       1      68      67  0.0000-1.00000  0.0000
CBEAM        905       1      67      66  0.0000-1.00000  0.0000
CBEAM        906       1      66      65  0.0000-1.00000  0.0000
CBEAM        907       1      65      64  0.0000-1.00000  0.0000
CBEAM        908       1      64      63  0.0000-1.00000  0.0000
CBEAM        909       1      63      62  0.0000-1.00000  0.0000
CBEAM        910       1      62      61  0.0000-1.00000  0.0000
CBEAM        911       1      61      60  0.0000-1.00000  0.0000
CBEAM        912       1      60      59  0.0000-1.00000  0.0000
CBEAM        913       1      59      58  0.0000-1.00000  0.0000
CBEAM        914       1      58      57  0.0000-1.00000  0.0000
CBEAM        915       1      57      56  0.0000-1.00000  0.0000
CBEAM        916       1      56      55  0.0000-1.00000  0.0000
CBEAM        917       1      55      54  0.0000-1.00000  0.0000
CBEAM        918       1      54      53  0.0000-1.00000  0.0000
CBEAM        919       1      53      52  0.0000-1.00000  0.0000
CBEAM        920       1      52      51  0.0000-1.00000  0.0000
CBEAM        921       1      51      50  0.0000-1.00000  0.0000
CBEAM        922       1      50      49  0.0000-1.00000  0.0000
CBEAM        923       1      49      48  0.0000-1.00000  0.0000
CBEAM        924       1      48      47  0.0000-1.00000  0.0000
CBEAM        925       1      47      46  0.0000-1.00000  0.0000
CBEAM        926       1      46      45  0.0000-1.00000  0.0000
CBEAM        927       1      45      44  0.0000-1.00000  0.0000
CBEAM        928       1      44      43  0.0000-1.00000  0.0000
CBEAM        929       1      43      42  0.0000-1.00000  0.0000
CBEAM        930       1      42      41  0.0000-1.00000  0.0000
CBEAM        931       1      41      40  0.0000-1.00000  0.0000
CBEAM        932       1      40      39  0.0000-1.00000  0.0000
CBEAM        933       1      39      38  0.0000-1.00000  0.0000
CBEAM        934       1      38      37  0.0000-1.00000  0.0000
CBEAM        935       1      37      36  0.0000-1.00000  0.0000
CBEAM        936       1      36      35  0.0000-1.00000  0.0000
CBEAM        937       1      35      34  0.0000-1.00000  0.0000
CBEAM        938       1      34      33  0.0000-1.00000  0.0000
CBEAM        939       1      33      32  0.0000-1.00000  0.0000
CBEAM        940       1      32      31  0.0000-1.00000  0.0000
CBEAM        941       1      31      30  0.0000-1.00000  0.0000
CBEAM        942       1      30      29  0.0000-1.00000  0.0000
CBEAM        943       1      29      28  0.0000-1.00000  0.0000
CBEAM        944       1      28      27  0.0000-1.00000  0.0000
CBEAM        945       1      27      26  0.0000-1.00000  0.0000
CBEAM        946       1      26      25  0.0000-1.00000  0.0000
CBEAM        947       1      25      24  0.0000-1.00000  0.0000
CBEAM        948       1      24      23  0.0000-1.00000  0.0000
CBEAM        949       1      23      22  0.0000-1.00000  0.0000
CBEAM        950       1      22      21  0.0000-1.00000  0.0000
CBEAM        951       1      21      20  0.0000-1.00000  0.0000
CBEAM        952       1      20      19  0.0000-1.00000  0.0000
CBEAM        953       1      19      18  0.0000-1.00000  0.0000
CBEAM        954       1      18      17  0.0000-1.00000  0.0000
CBEAM        955       1      17      16  0.0000-1.00000  0.0000
CBEAM        956       1      16      15  0.0000-1.00000  0.0000
CBEAM        957       1      15      14  0.0000-1.00000  0.0000
CBEAM        958       1      14      13  0.0000-1.00000  0.0000
CBEAM        959       1      13      12  0.0000-1.00000  0.0000
CBEAM        960       1      12      11  0.0000-1.00000  0.0000
CBEAM        961       1      11      10  0.0000-1.00000  0.0000
CBEAM        962       1      10       9  0.0000-1.00000  0.0000
CBEAM        963       1       9       8  0.0000-1.00000  0.0000
CBEAM        964       1       8       7  0.0000-1.00000  0.0000
CBEAM        965       1       7       6  0.0000-1.00000  0.0000
$*  Mesh Collector: Beam Collector(2)
$*  Mesh: 1d_mesh(2)
CBEAM        966       2    2327    2326  0.0000-1.00000  0.0000
CBEAM        967       2    2326    2325  0.0000-1.00000  0.0000
CBEAM        968       2    2325    2324  0.0000-1.00000  0.0000
CBEAM        969       2    2324    2323  0.0000-1.00000  0.0000
CBEAM        970       2    2323    2322  0.0000-1.00000  0.0000
CBEAM        971       2    2322    2321  0.0000-1.00000  0.0000
CBEAM        972       2    2321    2320  0.0000-1.00000  0.0000
CBEAM        973       2    2320    2319  0.0000-1.00000  0.0000
CBEAM        974       2    2319    2318  0.0000-1.00000  0.0000
CBEAM        975       2    2318    2317  0.0000-1.00000  0.0000
CBEAM        976       2    2317    2316  0.0000-1.00000  0.0000
CBEAM        977       2    2316    2315  0.0000-1.00000  0.0000
CBEAM        978       2    2315    2314  0.0000-1.00000  0.0000
CBEAM        979       2    2314    2313  0.0000-1.00000  0.0000
CBEAM        980       2    2313    2312  0.0000-1.00000  0.0000
CBEAM        981       2    2312    2311  0.0000-1.00000  0.0000
CBEAM        982       2    2311    2310  0.0000-1.00000  0.0000
CBEAM        983       2    2310    2309  0.0000-1.00000  0.0000
CBEAM        984       2    2309    2308  0.0000-1.00000  0.0000
CBEAM        985       2    2308    2307  0.0000-1.00000  0.0000
CBEAM        986       2    2307    2306  0.0000-1.00000  0.0000
CBEAM        987       2    2306    2305  0.0000-1.00000  0.0000
CBEAM        988       2    2305    2304  0.0000-1.00000  0.0000
CBEAM        989       2    2304    2303  0.0000-1.00000  0.0000
CBEAM        990       2    2303    2302  0.0000-1.00000  0.0000
CBEAM        991       2    2302    2301  0.0000-1.00000  0.0000
CBEAM        992       2    2301    2300  0.0000-1.00000  0.0000
CBEAM        993       2    2300    2299  0.0000-1.00000  0.0000
CBEAM        994       2    2299    2298  0.0000-1.00000  0.0000
CBEAM        995       2    2298    2297  0.0000-1.00000  0.0000
CBEAM        996       2    2297    2296  0.0000-1.00000  0.0000
CBEAM        997       2    2296    2295  0.0000-1.00000  0.0000
CBEAM        998       2    2295    2294  0.0000-1.00000  0.0000
CBEAM        999       2    2294    2293  0.0000-1.00000  0.0000
CBEAM       1000       2    2293    2292  0.0000-1.00000  0.0000
CBEAM       1001       2    2292    2291  0.0000-1.00000  0.0000
CBEAM       1002       2    2291    2290  0.0000-1.00000  0.0000
CBEAM       1003       2    2290    2289  0.0000-1.00000  0.0000
CBEAM       1004       2    2289    2288  0.0000-1.00000  0.0000
CBEAM       1005       2    2288    2287  0.0000-1.00000  0.0000
CBEAM       1006       2    2287    2286  0.0000-1.00000  0.0000
CBEAM       1007       2    2286    2285  0.0000-1.00000  0.0000
CBEAM       1008       2    2285    2284  0.0000-1.00000  0.0000
CBEAM       1009       2    2284    2283  0.0000-1.00000  0.0000
CBEAM       1010       2    2283    2282  0.0000-1.00000  0.0000
CBEAM       1011       2    2282    2281  0.0000-1.00000  0.0000
CBEAM       1012       2    2281    2280  0.0000-1.00000  0.0000
CBEAM       1013       2    2280    2279  0.0000-1.00000  0.0000
CBEAM       1014       2    2279    2278  0.0000-1.00000  0.0000
CBEAM       1015       2    2278    2277  0.0000-1.00000  0.0000
CBEAM       1016       2    2277    2276  0.0000-1.00000  0.0000
CBEAM       1017       2    2276    2275  0.0000-1.00000  0.0000
CBEAM       1018       2    2275    2274  0.0000-1.00000  0.0000
CBEAM       1019       2    2274    2273  0.0000-1.00000  0.0000
CBEAM       1020       2    2273    2272  0.0000-1.00000  0.0000
CBEAM       1021       2    2272    2271  0.0000-1.00000  0.0000
CBEAM       1022       2    2271    2270  0.0000-1.00000  0.0000
CBEAM       1023       2    2270    2269  0.0000-1.00000  0.0000
CBEAM       1024       2    2269    2268  0.0000-1.00000  0.0000
CBEAM       1025       2    2268    2267  0.0000-1.00000  0.0000
CBEAM       1026       2    2267    2266  0.0000-1.00000  0.0000
CBEAM       1027       2    2266    2265  0.0000-1.00000  0.0000
CBEAM       1028       2    2265    2264  0.0000-1.00000  0.0000
CBEAM       1029       2    2264    2263  0.0000-1.00000  0.0000
CBEAM       1030       2    2263    2262  0.0000-1.00000  0.0000
CBEAM       1031       2    2262    2261  0.0000-1.00000  0.0000
CBEAM       1032       2    2261    2260  0.0000-1.00000  0.0000
CBEAM       1033       2    2260    2259  0.0000-1.00000  0.0000
CBEAM       1034       2    2259    2258  0.0000-1.00000  0.0000
CBEAM       1035       2    2258    2257  0.0000-1.00000  0.0000
CBEAM       1036       2    2257    2256  0.0000-1.00000  0.0000
CBEAM       1037       2    2256    2255  0.0000-1.00000  0.0000
CBEAM       1038       2    2255    2254  0.0000-1.00000  0.0000
CBEAM       1039       2    2254    2253  0.0000-1.00000  0.0000
CBEAM       1040       2    2253    2252  0.0000-1.00000  0.0000
CBEAM       1041       2    2252    2251  0.0000-1.00000  0.0000
CBEAM       1042       2    2251    2250  0.0000-1.00000  0.0000
CBEAM       1043       2    2250    2249  0.0000-1.00000  0.0000
CBEAM       1044       2    2249    2248  0.0000-1.00000  0.0000
CBEAM       1045       2    2248    2247  0.0000-1.00000  0.0000
CBEAM       1046       2    2247    2246  0.0000-1.00000  0.0000
CBEAM       1047       2    2246    2245  0.0000-1.00000  0.0000
CBEAM       1048       2    2245    2244  0.0000-1.00000  0.0000
CBEAM       1049       2    2244    2243  0.0000-1.00000  0.0000
CBEAM       1050       2    2243    2242  0.0000-1.00000  0.0000
CBEAM       1051       2    2242    2241  0.0000-1.00000  0.0000
CBEAM       1052       2    2241    2240  0.0000-1.00000  0.0000
CBEAM       1053       2    2240    2239  0.0000-1.00000  0.0000
CBEAM       1054       2    2239    2238  0.0000-1.00000  0.0000
CBEAM       1055       2    2238    2237  0.0000-1.00000  0.0000
CBEAM       1056       2    2237    2236  0.0000-1.00000  0.0000
CBEAM       1057       2    2236    2235  0.0000-1.00000  0.0000
CBEAM       1058       2    2235    2234  0.0000-1.00000  0.0000
CBEAM       1059       2    2234    2233  0.0000-1.00000  0.0000
CBEAM       1060       2    2233    2232  0.0000-1.00000  0.0000
CBEAM       1061       2    2232    2231  0.0000-1.00000  0.0000
CBEAM       1062       2    2231    2230  0.0000-1.00000  0.0000
CBEAM       1063       2    2230    2229  0.0000-1.00000  0.0000
CBEAM       1064       2    2229    2228  0.0000-1.00000  0.0000
CBEAM       1065       2    2228    2227  0.0000-1.00000  0.0000
CBEAM       1066       2    2227    2226  0.0000-1.00000  0.0000
CBEAM       1067       2    2226    2225  0.0000-1.00000  0.0000
CBEAM       1068       2    2225    2224  0.0000-1.00000  0.0000
CBEAM       1069       2    2224    2223  0.0000-1.00000  0.0000
CBEAM       1070       2    2223    2222  0.0000-1.00000  0.0000
CBEAM       1071       2    2222    2221  0.0000-1.00000  0.0000
CBEAM       1072       2    2221    2220  0.0000-1.00000  0.0000
CBEAM       1073       2    2220    2219  0.0000-1.00000  0.0000
CBEAM       1074       2    2219    2218  0.0000-1.00000  0.0000
CBEAM       1075       2    2218    2217  0.0000-1.00000  0.0000
CBEAM       1076       2    2217    2216  0.0000-1.00000  0.0000
CBEAM       1077       2    2216    2215  0.0000-1.00000  0.0000
CBEAM       1078       2    2215    2214  0.0000-1.00000  0.0000
CBEAM       1079       2    2214    2213  0.0000-1.00000  0.0000
CBEAM       1080       2    2213    2212  0.0000-1.00000  0.0000
CBEAM       1081       2    2212    2211  0.0000-1.00000  0.0000
CBEAM       1082       2    2211    2210  0.0000-1.00000  0.0000
CBEAM       1083       2    2210    2209  0.0000-1.00000  0.0000
CBEAM       1084       2    2209    2208  0.0000-1.00000  0.0000
CBEAM       1085       2    2208    2207  0.0000-1.00000  0.0000
CBEAM       1086       2    2207    2206  0.0000-1.00000  0.0000
CBEAM       1087       2    2206    2205  0.0000-1.00000  0.0000
CBEAM       1088       2    2205    2204  0.0000-1.00000  0.0000
CBEAM       1089       2    2204    2203  0.0000-1.00000  0.0000
CBEAM       1090       2    2203    2202  0.0000-1.00000  0.0000
CBEAM       1091       2    2202    2201  0.0000-1.00000  0.0000
CBEAM       1092       2    2201    2200  0.0000-1.00000  0.0000
CBEAM       1093       2    2200    2199  0.0000-1.00000  0.0000
CBEAM       1094       2    2199    2198  0.0000-1.00000  0.0000
CBEAM       1095       2    2198    2197  0.0000-1.00000  0.0000
CBEAM       1096       2    2197    2196  0.0000-1.00000  0.0000
CBEAM       1097       2    2196    2195  0.0000-1.00000  0.0000
CBEAM       1098       2    2195    2194  0.0000-1.00000  0.0000
CBEAM       1099       2    2194    2193  0.0000-1.00000  0.0000
CBEAM       1100       2    2193    2192  0.0000-1.00000  0.0000
CBEAM       1101       2    2192    2191  0.0000-1.00000  0.0000
CBEAM       1102       2    2191    2190  0.0000-1.00000  0.0000
CBEAM       1103       2    2190    2189  0.0000-1.00000  0.0000
CBEAM       1104       2    2189    2188  0.0000-1.00000  0.0000
CBEAM       1105       2    2188    2187  0.0000-1.00000  0.0000
CBEAM       1106       2    2187    2186  0.0000-1.00000  0.0000
CBEAM       1107       2    2186    2185  0.0000-1.00000  0.0000
CBEAM       1108       2    2185    2184  0.0000-1.00000  0.0000
CBEAM       1109       2    2184    2183  0.0000-1.00000  0.0000
CBEAM       1110       2    2183    2182  0.0000-1.00000  0.0000
CBEAM       1111       2    2182    2181  0.0000-1.00000  0.0000
CBEAM       1112       2    2181    2180  0.0000-1.00000  0.0000
CBEAM       1113       2    2180    2179  0.0000-1.00000  0.0000
CBEAM       1114       2    2179    2178  0.0000-1.00000  0.0000
CBEAM       1115       2    2178    2177  0.0000-1.00000  0.0000
CBEAM       1116       2    2177    2176  0.0000-1.00000  0.0000
CBEAM       1117       2    2176    2175  0.0000-1.00000  0.0000
CBEAM       1118       2    2175    2174  0.0000-1.00000  0.0000
CBEAM       1119       2    2174    2173  0.0000-1.00000  0.0000
CBEAM       1120       2    2173    2172  0.0000-1.00000  0.0000
CBEAM       1121       2    2172    2171  0.0000-1.00000  0.0000
CBEAM       1122       2    2171    2170  0.0000-1.00000  0.0000
CBEAM       1123       2    2170    2169  0.0000-1.00000  0.0000
CBEAM       1124       2    2169    2168  0.0000-1.00000  0.0000
CBEAM       1125       2    2168    2167  0.0000-1.00000  0.0000
CBEAM       1126       2    2167    2166  0.0000-1.00000  0.0000
CBEAM       1127       2    2166    2165  0.0000-1.00000  0.0000
CBEAM       1128       2    2165    2164  0.0000-1.00000  0.0000
CBEAM       1129       2    2164    2163  0.0000-1.00000  0.0000
CBEAM       1130       2    2163    2162  0.0000-1.00000  0.0000
CBEAM       1131       2    2162    2161  0.0000-1.00000  0.0000
CBEAM       1132       2    2161    2160  0.0000-1.00000  0.0000
CBEAM       1133       2    2160    2159  0.0000-1.00000  0.0000
CBEAM       1134       2    2159    2158  0.0000-1.00000  0.0000
CBEAM       1135       2    2158    2157  0.0000-1.00000  0.0000
CBEAM       1136       2    2157    2156  0.0000-1.00000  0.0000
CBEAM       1137       2    2156    2155  0.0000-1.00000  0.0000
CBEAM       1138       2    2155    2154  0.0000-1.00000  0.0000
CBEAM       1139       2    2154    2153  0.0000-1.00000  0.0000
CBEAM       1140       2    2153    2152  0.0000-1.00000  0.0000
CBEAM       1141       2    2152    2151  0.0000-1.00000  0.0000
CBEAM       1142       2    2151    2150  0.0000-1.00000  0.0000
CBEAM       1143       2    2150    2149  0.0000-1.00000  0.0000
CBEAM       1144       2    2149    2148  0.0000-1.00000  0.0000
CBEAM       1145       2    2148    2147  0.0000-1.00000  0.0000
CBEAM       1146       2    2147    2146  0.0000-1.00000  0.0000
CBEAM       1147       2    2146    2145  0.0000-1.00000  0.0000
CBEAM       1148       2    2145    2144  0.0000-1.00000  0.0000
CBEAM       1149       2    2144    2143  0.0000-1.00000  0.0000
CBEAM       1150       2    2143    2142  0.0000-1.00000  0.0000
CBEAM       1151       2    2142    2141  0.0000-1.00000  0.0000
CBEAM       1152       2    2141    2140  0.0000-1.00000  0.0000
CBEAM       1153       2    2140    2139  0.0000-1.00000  0.0000
CBEAM       1154       2    2139    2138  0.0000-1.00000  0.0000
CBEAM       1155       2    2138    2137  0.0000-1.00000  0.0000
CBEAM       1156       2    2137    2136  0.0000-1.00000  0.0000
CBEAM       1157       2    2136    2135  0.0000-1.00000  0.0000
CBEAM       1158       2    2135    2134  0.0000-1.00000  0.0000
CBEAM       1159       2    2134    2133  0.0000-1.00000  0.0000
CBEAM       1160       2    2133    2132  0.0000-1.00000  0.0000
CBEAM       1161       2    2132    2131  0.0000-1.00000  0.0000
CBEAM       1162       2    2131    2130  0.0000-1.00000  0.0000
CBEAM       1163       2    2130    2129  0.0000-1.00000  0.0000
CBEAM       1164       2    2129    2128  0.0000-1.00000  0.0000
CBEAM       1165       2    2128    2127  0.0000-1.00000  0.0000
CBEAM       1166       2    2127    2126  0.0000-1.00000  0.0000
CBEAM       1167       2    2126    2125  0.0000-1.00000  0.0000
CBEAM       1168       2    2125    2124  0.0000-1.00000  0.0000
CBEAM       1169       2    2124    2123  0.0000-1.00000  0.0000
CBEAM       1170       2    2123    2122  0.0000-1.00000  0.0000
CBEAM       1171       2    2122    2121  0.0000-1.00000  0.0000
CBEAM       1172       2    2121    2120  0.0000-1.00000  0.0000
CBEAM       1173       2    2120    2119  0.0000-1.00000  0.0000
CBEAM       1174       2    2119    2118  0.0000-1.00000  0.0000
CBEAM       1175       2    2118    2117  0.0000-1.00000  0.0000
CBEAM       1176       2    2117    2116  0.0000-1.00000  0.0000
CBEAM       1177       2    2116    2115  0.0000-1.00000  0.0000
CBEAM       1178       2    2115    2114  0.0000-1.00000  0.0000
CBEAM       1179       2    2114    2113  0.0000-1.00000  0.0000
CBEAM       1180       2    2113    2112  0.0000-1.00000  0.0000
CBEAM       1181       2    2112    2111  0.0000-1.00000  0.0000
CBEAM       1182       2    2111    2110  0.0000-1.00000  0.0000
CBEAM       1183       2    2110    2109  0.0000-1.00000  0.0000
CBEAM       1184       2    2109    2108  0.0000-1.00000  0.0000
CBEAM       1185       2    2108    2107  0.0000-1.00000  0.0000
CBEAM       1186       2    2107    2106  0.0000-1.00000  0.0000
CBEAM       1187       2    2106    2105  0.0000-1.00000  0.0000
CBEAM       1188       2    2105    2104  0.0000-1.00000  0.0000
CBEAM       1189       2    2104    2103  0.0000-1.00000  0.0000
CBEAM       1190       2    2103    2102  0.0000-1.00000  0.0000
CBEAM       1191       2    2102    2101  0.0000-1.00000  0.0000
CBEAM       1192       2    2101    2100  0.0000-1.00000  0.0000
CBEAM       1193       2    2100    2099  0.0000-1.00000  0.0000
CBEAM       1194       2    2099    2098  0.0000-1.00000  0.0000
CBEAM       1195       2    2098    2097  0.0000-1.00000  0.0000
CBEAM       1196       2    2097    2096  0.0000-1.00000  0.0000
CBEAM       1197       2    2096    2095  0.0000-1.00000  0.0000
CBEAM       1198       2    2095    2094  0.0000-1.00000  0.0000
CBEAM       1199       2    2094    2093  0.0000-1.00000  0.0000
CBEAM       1200       2    2093    2092  0.0000-1.00000  0.0000
CBEAM       1201       2    2092    2091  0.0000-1.00000  0.0000
CBEAM       1202       2    2091    2090  0.0000-1.00000  0.0000
CBEAM       1203       2    2090    2089  0.0000-1.00000  0.0000
CBEAM       1204       2    2089    2088  0.0000-1.00000  0.0000
CBEAM       1205       2    2088    2087  0.0000-1.00000  0.0000
CBEAM       1206       2    2087    2086  0.0000-1.00000  0.0000
CBEAM       1207       2    2086    2085  0.0000-1.00000  0.0000
CBEAM       1208       2    2085    2084  0.0000-1.00000  0.0000
CBEAM       1209       2    2084    2083  0.0000-1.00000  0.0000
CBEAM       1210       2    2083    2082  0.0000-1.00000  0.0000
CBEAM       1211       2    2082    2081  0.0000-1.00000  0.0000
CBEAM       1212       2    2081    2080  0.0000-1.00000  0.0000
CBEAM       1213       2    2080    2079  0.0000-1.00000  0.0000
CBEAM       1214       2    2079    2078  0.0000-1.00000  0.0000
CBEAM       1215       2    2078    2077  0.0000-1.00000  0.0000
CBEAM       1216       2    2077    2076  0.0000-1.00000  0.0000
CBEAM       1217       2    2076    2075  0.0000-1.00000  0.0000
CBEAM       1218       2    2075    2074  0.0000-1.00000  0.0000
CBEAM       1219       2    2074    2073  0.0000-1.00000  0.0000
CBEAM       1220       2    2073    2072  0.0000-1.00000  0.0000
CBEAM       1221       2    2072    2071  0.0000-1.00000  0.0000
CBEAM       1222       2    2071    2070  0.0000-1.00000  0.0000
CBEAM       1223       2    2070    2069  0.0000-1.00000  0.0000
CBEAM       1224       2    2069    2068  0.0000-1.00000  0.0000
CBEAM       1225       2    2068    2067  0.0000-1.00000  0.0000
CBEAM       1226       2    2067    2066  0.0000-1.00000  0.0000
CBEAM       1227       2    2066    2065  0.0000-1.00000  0.0000
CBEAM       1228       2    2065    2064  0.0000-1.00000  0.0000
CBEAM       1229       2    2064    2063  0.0000-1.00000  0.0000
CBEAM       1230       2    2063    2062  0.0000-1.00000  0.0000
CBEAM       1231       2    2062    2061  0.0000-1.00000  0.0000
CBEAM       1232       2    2061    2060  0.0000-1.00000  0.0000
CBEAM       1233       2    2060    2059  0.0000-1.00000  0.0000
CBEAM       1234       2    2059    2058  0.0000-1.00000  0.0000
CBEAM       1235       2    2058    2057  0.0000-1.00000  0.0000
CBEAM       1236       2    2057    2056  0.0000-1.00000  0.0000
CBEAM       1237       2    2056    2055  0.0000-1.00000  0.0000
CBEAM       1238       2    2055    2054  0.0000-1.00000  0.0000
CBEAM       1239       2    2054    2053  0.0000-1.00000  0.0000
CBEAM       1240       2    2053    2052  0.0000-1.00000  0.0000
CBEAM       1241       2    2052    2051  0.0000-1.00000  0.0000
CBEAM       1242       2    2051    2050  0.0000-1.00000  0.0000
CBEAM       1243       2    2050    2049  0.0000-1.00000  0.0000
CBEAM       1244       2    2049    2048  0.0000-1.00000  0.0000
CBEAM       1245       2    2048    2047  0.0000-1.00000  0.0000
CBEAM       1246       2    2047    2046  0.0000-1.00000  0.0000
CBEAM       1247       2    2046    2045  0.0000-1.00000  0.0000
CBEAM       1248       2    2045    2044  0.0000-1.00000  0.0000
CBEAM       1249       2    2044    2043  0.0000-1.00000  0.0000
CBEAM       1250       2    2043    2042  0.0000-1.00000  0.0000
CBEAM       1251       2    2042    2041  0.0000-1.00000  0.0000
CBEAM       1252       2    2041    2040  0.0000-1.00000  0.0000
CBEAM       1253       2    2040    2039  0.0000-1.00000  0.0000
CBEAM       1254       2    2039    2038  0.0000-1.00000  0.0000
CBEAM       1255       2    2038    2037  0.0000-1.00000  0.0000
CBEAM       1256       2    2037    2036  0.0000-1.00000  0.0000
CBEAM       1257       2    2036    2035  0.0000-1.00000  0.0000
CBEAM       1258       2    2035    2034  0.0000-1.00000  0.0000
CBEAM       1259       2    2034    2033  0.0000-1.00000  0.0000
CBEAM       1260       2    2033    2032  0.0000-1.00000  0.0000
CBEAM       1261       2    2032    2031  0.0000-1.00000  0.0000
CBEAM       1262       2    2031    2030  0.0000-1.00000  0.0000
CBEAM       1263       2    2030    2029  0.0000-1.00000  0.0000
CBEAM       1264       2    2029    2028  0.0000-1.00000  0.0000
CBEAM       1265       2    2028    2027  0.0000-1.00000  0.0000
CBEAM       1266       2    2027    2026  0.0000-1.00000  0.0000
CBEAM       1267       2    2026    2025  0.0000-1.00000  0.0000
CBEAM       1268       2    2025    2024  0.0000-1.00000  0.0000
CBEAM       1269       2    2024    2023  0.0000-1.00000  0.0000
CBEAM       1270       2    2023    2022  0.0000-1.00000  0.0000
CBEAM       1271       2    2022    2021  0.0000-1.00000  0.0000
CBEAM       1272       2    2021    2020  0.0000-1.00000  0.0000
CBEAM       1273       2    2020    2019  0.0000-1.00000  0.0000
CBEAM       1274       2    2019    2018  0.0000-1.00000  0.0000
CBEAM       1275       2    2018    2017  0.0000-1.00000  0.0000
CBEAM       1276       2    2017    2016  0.0000-1.00000  0.0000
CBEAM       1277       2    2016    2015  0.0000-1.00000  0.0000
CBEAM       1278       2    2015    2014  0.0000-1.00000  0.0000
CBEAM       1279       2    2014    2013  0.0000-1.00000  0.0000
CBEAM       1280       2    2013    2012  0.0000-1.00000  0.0000
CBEAM       1281       2    2012    2011  0.0000-1.00000  0.0000
CBEAM       1282       2    2011    2010  0.0000-1.00000  0.0000
CBEAM       1283       2    2010    2009  0.0000-1.00000  0.0000
CBEAM       1284       2    2009    2008  0.0000-1.00000  0.0000
CBEAM       1285       2    2008    2007  0.0000-1.00000  0.0000
CBEAM       1286       2    2007    2006  0.0000-1.00000  0.0000
CBEAM       1287       2    2006    2005  0.0000-1.00000  0.0000
CBEAM       1288       2    2005    2004  0.0000-1.00000  0.0000
CBEAM       1289       2    2004    2003  0.0000-1.00000  0.0000
CBEAM       1290       2    2003    2002  0.0000-1.00000  0.0000
CBEAM       1291       2    2002    2001  0.0000-1.00000  0.0000
CBEAM       1292       2    2001    2000  0.0000-1.00000  0.0000
CBEAM       1293       2    2000    1999  0.0000-1.00000  0.0000
CBEAM       1294       2    1999    1998  0.0000-1.00000  0.0000
CBEAM       1295       2    1998    1997  0.0000-1.00000  0.0000
CBEAM       1296       2    1997    1996  0.0000-1.00000  0.0000
CBEAM       1297       2    1996    1995  0.0000-1.00000  0.0000
CBEAM       1298       2    1995    1994  0.0000-1.00000  0.0000
CBEAM       1299       2    1994    1993  0.0000-1.00000  0.0000
CBEAM       1300       2    1993    1992  0.0000-1.00000  0.0000
CBEAM       1301       2    1992    1991  0.0000-1.00000  0.0000
CBEAM       1302       2    1991    1990  0.0000-1.00000  0.0000
CBEAM       1303       2    1990    1989  0.0000-1.00000  0.0000
CBEAM       1304       2    1989    1988  0.0000-1.00000  0.0000
CBEAM       1305       2    1988    1987  0.0000-1.00000  0.0000
CBEAM       1306       2    1987    1986  0.0000-1.00000  0.0000
CBEAM       1307       2    1986    1985  0.0000-1.00000  0.0000
CBEAM       1308       2    1985    1984  0.0000-1.00000  0.0000
CBEAM       1309       2    1984    1983  0.0000-1.00000  0.0000
CBEAM       1310       2    1983    1982  0.0000-1.00000  0.0000
CBEAM       1311       2    1982    1981  0.0000-1.00000  0.0000
CBEAM       1312       2    1981    1980  0.0000-1.00000  0.0000
CBEAM       1313       2    1980    1979  0.0000-1.00000  0.0000
CBEAM       1314       2    1979    1978  0.0000-1.00000  0.0000
CBEAM       1315       2    1978    1977  0.0000-1.00000  0.0000
CBEAM       1316       2    1977    1976  0.0000-1.00000  0.0000
CBEAM       1317       2    1976    1975  0.0000-1.00000  0.0000
CBEAM       1318       2    1975    1974  0.0000-1.00000  0.0000
CBEAM       1319       2    1974    1973  0.0000-1.00000  0.0000
CBEAM       1320       2    1973    1972  0.0000-1.00000  0.0000
CBEAM       1321       2    1972    1971  0.0000-1.00000  0.0000
CBEAM       1322       2    1971    1970  0.0000-1.00000  0.0000
CBEAM       1323       2    1970    1969  0.0000-1.00000  0.0000
CBEAM       1324       2    1969    1968  0.0000-1.00000  0.0000
CBEAM       1325       2    1968    1967  0.0000-1.00000  0.0000
CBEAM       1326       2    1967    1966  0.0000-1.00000  0.0000
CBEAM       1327       2    1966    1965  0.0000-1.00000  0.0000
CBEAM       1328       2    1965    1964  0.0000-1.00000  0.0000
CBEAM       1329       2    1964    1963  0.0000-1.00000  0.0000
CBEAM       1330       2    1963    1962  0.0000-1.00000  0.0000
CBEAM       1331       2    1962    1961  0.0000-1.00000  0.0000
CBEAM       1332       2    1961    1960  0.0000-1.00000  0.0000
CBEAM       1333       2    1960    1959  0.0000-1.00000  0.0000
CBEAM       1334       2    1959    1958  0.0000-1.00000  0.0000
CBEAM       1335       2    1958    1957  0.0000-1.00000  0.0000
CBEAM       1336       2    1957    1956  0.0000-1.00000  0.0000
CBEAM       1337       2    1956    1955  0.0000-1.00000  0.0000
CBEAM       1338       2    1955    1954  0.0000-1.00000  0.0000
CBEAM       1339       2    1954    1953  0.0000-1.00000  0.0000
CBEAM       1340       2    1953    1952  0.0000-1.00000  0.0000
CBEAM       1341       2    1952    1951  0.0000-1.00000  0.0000
CBEAM       1342       2    1951    1950  0.0000-1.00000  0.0000
CBEAM       1343       2    1950    1949  0.0000-1.00000  0.0000
CBEAM       1344       2    1949    1948  0.0000-1.00000  0.0000
CBEAM       1345       2    1948    1947  0.0000-1.00000  0.0000
CBEAM       1346       2    1947    1946  0.0000-1.00000  0.0000
CBEAM       1347       2    1946    1945  0.0000-1.00000  0.0000
CBEAM       1348       2    1945    1944  0.0000-1.00000  0.0000
CBEAM       1349       2    1944    1943  0.0000-1.00000  0.0000
CBEAM       1350       2    1943    1942  0.0000-1.00000  0.0000
CBEAM       1351       2    1942    1941  0.0000-1.00000  0.0000
CBEAM       1352       2    1941    1940  0.0000-1.00000  0.0000
CBEAM       1353       2    1940    1939  0.0000-1.00000  0.0000
CBEAM       1354       2    1939    1938  0.0000-1.00000  0.0000
CBEAM       1355       2    1938    1937  0.0000-1.00000  0.0000
CBEAM       1356       2    1937    1936  0.0000-1.00000  0.0000
CBEAM       1357       2    1936    1935  0.0000-1.00000  0.0000
CBEAM       1358       2    1935    1934  0.0000-1.00000  0.0000
CBEAM       1359       2    1934    1933  0.0000-1.00000  0.0000
CBEAM       1360       2    1933    1932  0.0000-1.00000  0.0000
CBEAM       1361       2    1932    1931  0.0000-1.00000  0.0000
CBEAM       1362       2    1931    1930  0.0000-1.00000  0.0000
CBEAM       1363       2    1930    1929  0.0000-1.00000  0.0000
CBEAM       1364       2    1929    1928  0.0000-1.00000  0.0000
CBEAM       1365       2    1928    1927  0.0000-1.00000  0.0000
CBEAM       1366       2    1927    1926  0.0000-1.00000  0.0000
CBEAM       1367       2    1926    1925  0.0000-1.00000  0.0000
CBEAM       1368       2    1925    1924  0.0000-1.00000  0.0000
CBEAM       1369       2    1924    1923  0.0000-1.00000  0.0000
CBEAM       1370       2    1923    1922  0.0000-1.00000  0.0000
CBEAM       1371       2    1922    1921  0.0000-1.00000  0.0000
CBEAM       1372       2    1921    1920  0.0000-1.00000  0.0000
CBEAM       1373       2    1920    1919  0.0000-1.00000  0.0000
CBEAM       1374       2    1919    1918  0.0000-1.00000  0.0000
CBEAM       1375       2    1918    1917  0.0000-1.00000  0.0000
CBEAM       1376       2    1917    1916  0.0000-1.00000  0.0000
CBEAM       1377       2    1916    1915  0.0000-1.00000  0.0000
CBEAM       1378       2    1915    1914  0.0000-1.00000  0.0000
CBEAM       1379       2    1914    1913  0.0000-1.00000  0.0000
CBEAM       1380       2    1913    1912  0.0000-1.00000  0.0000
CBEAM       1381       2    1912    1911  0.0000-1.00000  0.0000
CBEAM       1382       2    1911    1910  0.0000-1.00000  0.0000
CBEAM       1383       2    1910    1909  0.0000-1.00000  0.0000
CBEAM       1384       2    1909    1908  0.0000-1.00000  0.0000
CBEAM       1385       2    1908    1907  0.0000-1.00000  0.0000
CBEAM       1386       2    1907    1906  0.0000-1.00000  0.0000
CBEAM       1387       2    1906    1905  0.0000-1.00000  0.0000
CBEAM       1388       2    1905    1904  0.0000-1.00000  0.0000
CBEAM       1389       2    1904    1903  0.0000-1.00000  0.0000
CBEAM       1390       2    1903    1902  0.0000-1.00000  0.0000
CBEAM       1391       2    1902    1901  0.0000-1.00000  0.0000
CBEAM       1392       2    1901    1900  0.0000-1.00000  0.0000
CBEAM       1393       2    1900    1899  0.0000-1.00000  0.0000
CBEAM       1394       2    1899    1898  0.0000-1.00000  0.0000
CBEAM       1395       2    1898    1897  0.0000-1.00000  0.0000
CBEAM       1396       2    1897    1896  0.0000-1.00000  0.0000
CBEAM       1397       2    1896    1895  0.0000-1.00000  0.0000
CBEAM       1398       2    1895    1894  0.0000-1.00000  0.0000
CBEAM       1399       2    1894    1893  0.0000-1.00000  0.0000
CBEAM       1400       2    1893    1892  0.0000-1.00000  0.0000
CBEAM       1401       2    1892    1891  0.0000-1.00000  0.0000
CBEAM       1402       2    1891    1890  0.0000-1.00000  0.0000
CBEAM       1403       2    1890    1889  0.0000-1.00000  0.0000
CBEAM       1404       2    1889    1888  0.0000-1.00000  0.0000
CBEAM       1405       2    1888    1887  0.0000-1.00000  0.0000
CBEAM       1406       2    1887    1886  0.0000-1.00000  0.0000
CBEAM       1407       2    1886    1885  0.0000-1.00000  0.0000
CBEAM       1408       2    1885    1884  0.0000-1.00000  0.0000
CBEAM       1409       2    1884    1883  0.0000-1.00000  0.0000
CBEAM       1410       2    1883    1882  0.0000-1.00000  0.0000
CBEAM       1411       2    1882    1881  0.0000-1.00000  0.0000
CBEAM       1412       2    1881    1880  0.0000-1.00000  0.0000
CBEAM       1413       2    1880    1879  0.0000-1.00000  0.0000
CBEAM       1414       2    1879    1878  0.0000-1.00000  0.0000
CBEAM       1415       2    1878    1877  0.0000-1.00000  0.0000
CBEAM       1416       2    1877    1876  0.0000-1.00000  0.0000
CBEAM       1417       2    1876    1875  0.0000-1.00000  0.0000
CBEAM       1418       2    1875    1874  0.0000-1.00000  0.0000
CBEAM       1419       2    1874    1873  0.0000-1.00000  0.0000
CBEAM       1420       2    1873    1872  0.0000-1.00000  0.0000
CBEAM       1421       2    1872    1871  0.0000-1.00000  0.0000
CBEAM       1422       2    1871    1870  0.0000-1.00000  0.0000
CBEAM       1423       2    1870    1869  0.0000-1.00000  0.0000
CBEAM       1424       2    1869    1868  0.0000-1.00000  0.0000
CBEAM       1425       2    1868    1867  0.0000-1.00000  0.0000
CBEAM       1426       2    1867    1866  0.0000-1.00000  0.0000
CBEAM       1427       2    1866    1865  0.0000-1.00000  0.0000
CBEAM       1428       2    1865    1864  0.0000-1.00000  0.0000
CBEAM       1429       2    1864    1863  0.0000-1.00000  0.0000
CBEAM       1430       2    1863    1862  0.0000-1.00000  0.0000
CBEAM       1431       2    1862    1861  0.0000-1.00000  0.0000
CBEAM       1432       2    1861    1860  0.0000-1.00000  0.0000
CBEAM       1433       2    1860    1859  0.0000-1.00000  0.0000
CBEAM       1434       2    1859    1858  0.0000-1.00000  0.0000
CBEAM       1435       2    1858    1857  0.0000-1.00000  0.0000
CBEAM       1436       2    1857    1856  0.0000-1.00000  0.0000
CBEAM       1437       2    1856    1855  0.0000-1.00000  0.0000
CBEAM       1438       2    1855    1854  0.0000-1.00000  0.0000
CBEAM       1439       2    1854    1853  0.0000-1.00000  0.0000
CBEAM       1440       2    1853    1852  0.0000-1.00000  0.0000
CBEAM       1441       2    1852    1851  0.0000-1.00000  0.0000
CBEAM       1442       2    1851    1850  0.0000-1.00000  0.0000
CBEAM       1443       2    1850    1849  0.0000-1.00000  0.0000
CBEAM       1444       2    1849    1848  0.0000-1.00000  0.0000
CBEAM       1445       2    1848    1847  0.0000-1.00000  0.0000
CBEAM       1446       2    1847    1846  0.0000-1.00000  0.0000
CBEAM       1447       2    1846    1845  0.0000-1.00000  0.0000
CBEAM       1448       2    1845    1844  0.0000-1.00000  0.0000
CBEAM       1449       2    1844    1843  0.0000-1.00000  0.0000
CBEAM       1450       2    1843    1842  0.0000-1.00000  0.0000
CBEAM       1451       2    1842    1841  0.0000-1.00000  0.0000
CBEAM       1452       2    1841    1840  0.0000-1.00000  0.0000
CBEAM       1453       2    1840    1839  0.0000-1.00000  0.0000
CBEAM       1454       2    1839    1838  0.0000-1.00000  0.0000
CBEAM       1455       2    1838    1837  0.0000-1.00000  0.0000
CBEAM       1456       2    1837    1836  0.0000-1.00000  0.0000
CBEAM       1457       2    1836    1835  0.0000-1.00000  0.0000
CBEAM       1458       2    1835    1834  0.0000-1.00000  0.0000
CBEAM       1459       2    1834    1833  0.0000-1.00000  0.0000
CBEAM       1460       2    1833    1832  0.0000-1.00000  0.0000
CBEAM       1461       2    1832    1831  0.0000-1.00000  0.0000
CBEAM       1462       2    1831    1830  0.0000-1.00000  0.0000
CBEAM       1463       2    1830    1829  0.0000-1.00000  0.0000
CBEAM       1464       2    1829    1828  0.0000-1.00000  0.0000
CBEAM       1465       2    1828    1827  0.0000-1.00000  0.0000
CBEAM       1466       2    1827    1826  0.0000-1.00000  0.0000
CBEAM       1467       2    1826    1825  0.0000-1.00000  0.0000
CBEAM       1468       2    1825    1824  0.0000-1.00000  0.0000
CBEAM       1469       2    1824    1823  0.0000-1.00000  0.0000
CBEAM       1470       2    1823    1822  0.0000-1.00000  0.0000
CBEAM       1471       2    1822    1821  0.0000-1.00000  0.0000
CBEAM       1472       2    1821    1820  0.0000-1.00000  0.0000
CBEAM       1473       2    1820    1819  0.0000-1.00000  0.0000
CBEAM       1474       2    1819    1818  0.0000-1.00000  0.0000
CBEAM       1475       2    1818    1817  0.0000-1.00000  0.0000
CBEAM       1476       2    1817    1816  0.0000-1.00000  0.0000
CBEAM       1477       2    1816    1815  0.0000-1.00000  0.0000
CBEAM       1478       2    1815    1814  0.0000-1.00000  0.0000
CBEAM       1479       2    1814    1813  0.0000-1.00000  0.0000
CBEAM       1480       2    1813    1812  0.0000-1.00000  0.0000
CBEAM       1481       2    1812    1811  0.0000-1.00000  0.0000
CBEAM       1482       2    1811    1810  0.0000-1.00000  0.0000
CBEAM       1483       2    1810    1809  0.0000-1.00000  0.0000
CBEAM       1484       2    1809    1808  0.0000-1.00000  0.0000
CBEAM       1485       2    1808    1807  0.0000-1.00000  0.0000
CBEAM       1486       2    1807    1806  0.0000-1.00000  0.0000
CBEAM       1487       2    1806    1805  0.0000-1.00000  0.0000
CBEAM       1488       2    1805    1804  0.0000-1.00000  0.0000
CBEAM       1489       2    1804    1803  0.0000-1.00000  0.0000
CBEAM       1490       2    1803    1802  0.0000-1.00000  0.0000
CBEAM       1491       2    1802    1801  0.0000-1.00000  0.0000
CBEAM       1492       2    1801    1800  0.0000-1.00000  0.0000
CBEAM       1493       2    1800    1799  0.0000-1.00000  0.0000
CBEAM       1494       2    1799    1798  0.0000-1.00000  0.0000
CBEAM       1495       2    1798    1797  0.0000-1.00000  0.0000
CBEAM       1496       2    1797    1796  0.0000-1.00000  0.0000
CBEAM       1497       2    1796    1795  0.0000-1.00000  0.0000
CBEAM       1498       2    1795    1794  0.0000-1.00000  0.0000
CBEAM       1499       2    1794    1793  0.0000-1.00000  0.0000
CBEAM       1500       2    1793    1792  0.0000-1.00000  0.0000
CBEAM       1501       2    1792    1791  0.0000-1.00000  0.0000
CBEAM       1502       2    1791    1790  0.0000-1.00000  0.0000
CBEAM       1503       2    1790    1789  0.0000-1.00000  0.0000
CBEAM       1504       2    1789    1788  0.0000-1.00000  0.0000
CBEAM       1505       2    1788    1787  0.0000-1.00000  0.0000
CBEAM       1506       2    1787    1786  0.0000-1.00000  0.0000
CBEAM       1507       2    1786    1785  0.0000-1.00000  0.0000
CBEAM       1508       2    1785    1784  0.0000-1.00000  0.0000
CBEAM       1509       2    1784    1783  0.0000-1.00000  0.0000
CBEAM       1510       2    1783    1782  0.0000-1.00000  0.0000
CBEAM       1511       2    1782    1781  0.0000-1.00000  0.0000
CBEAM       1512       2    1781    1780  0.0000-1.00000  0.0000
CBEAM       1513       2    1780    1779  0.0000-1.00000  0.0000
CBEAM       1514       2    1779    1778  0.0000-1.00000  0.0000
CBEAM       1515       2    1778    1777  0.0000-1.00000  0.0000
CBEAM       1516       2    1777    1776  0.0000-1.00000  0.0000
CBEAM       1517       2    1776    1775  0.0000-1.00000  0.0000
CBEAM       1518       2    1775    1774  0.0000-1.00000  0.0000
CBEAM       1519       2    1774    1773  0.0000-1.00000  0.0000
CBEAM       1520       2    1773    1772  0.0000-1.00000  0.0000
CBEAM       1521       2    1772    1771  0.0000-1.00000  0.0000
CBEAM       1522       2    1771    1770  0.0000-1.00000  0.0000
CBEAM       1523       2    1770    1769  0.0000-1.00000  0.0000
CBEAM       1524       2    1769    1768  0.0000-1.00000  0.0000
CBEAM       1525       2    1768    1767  0.0000-1.00000  0.0000
CBEAM       1526       2    1767    1766  0.0000-1.00000  0.0000
CBEAM       1527       2    1766    1765  0.0000-1.00000  0.0000
CBEAM       1528       2    1765    1764  0.0000-1.00000  0.0000
CBEAM       1529       2    1764    1763  0.0000-1.00000  0.0000
CBEAM       1530       2    1763    1762  0.0000-1.00000  0.0000
CBEAM       1531       2    1762    1761  0.0000-1.00000  0.0000
CBEAM       1532       2    1761    1760  0.0000-1.00000  0.0000
CBEAM       1533       2    1760    1759  0.0000-1.00000  0.0000
CBEAM       1534       2    1759    1758  0.0000-1.00000  0.0000
CBEAM       1535       2    1758    1757  0.0000-1.00000  0.0000
CBEAM       1536       2    1757    1756  0.0000-1.00000  0.0000
CBEAM       1537       2    1756    1755  0.0000-1.00000  0.0000
CBEAM       1538       2    1755    1754  0.0000-1.00000  0.0000
CBEAM       1539       2    1754    1753  0.0000-1.00000  0.0000
CBEAM       1540       2    1753    1752  0.0000-1.00000  0.0000
CBEAM       1541       2    1752    1751  0.0000-1.00000  0.0000
CBEAM       1542       2    1751    1750  0.0000-1.00000  0.0000
CBEAM       1543       2    1750    1749  0.0000-1.00000  0.0000
CBEAM       1544       2    1749    1748  0.0000-1.00000  0.0000
CBEAM       1545       2    1748    1747  0.0000-1.00000  0.0000
CBEAM       1546       2    1747    1746  0.0000-1.00000  0.0000
CBEAM       1547       2    1746    1745  0.0000-1.00000  0.0000
CBEAM       1548       2    1745    1744  0.0000-1.00000  0.0000
CBEAM       1549       2    1744    1743  0.0000-1.00000  0.0000
CBEAM       1550       2    1743    1742  0.0000-1.00000  0.0000
CBEAM       1551       2    1742    1741  0.0000-1.00000  0.0000
CBEAM       1552       2    1741    1740  0.0000-1.00000  0.0000
CBEAM       1553       2    1740    1739  0.0000-1.00000  0.0000
CBEAM       1554       2    1739    1738  0.0000-1.00000  0.0000
CBEAM       1555       2    1738    1737  0.0000-1.00000  0.0000
CBEAM       1556       2    1737    1736  0.0000-1.00000  0.0000
CBEAM       1557       2    1736    1735  0.0000-1.00000  0.0000
CBEAM       1558       2    1735    1734  0.0000-1.00000  0.0000
CBEAM       1559       2    1734    1733  0.0000-1.00000  0.0000
CBEAM       1560       2    1733    1732  0.0000-1.00000  0.0000
CBEAM       1561       2    1732    1731  0.0000-1.00000  0.0000
CBEAM       1562       2    1731    1730  0.0000-1.00000  0.0000
CBEAM       1563       2    1730    1729  0.0000-1.00000  0.0000
CBEAM       1564       2    1729    1728  0.0000-1.00000  0.0000
CBEAM       1565       2    1728    1727  0.0000-1.00000  0.0000
CBEAM       1566       2    1727    1726  0.0000-1.00000  0.0000
CBEAM       1567       2    1726    1725  0.0000-1.00000  0.0000
CBEAM       1568       2    1725    1724  0.0000-1.00000  0.0000
CBEAM       1569       2    1724    1723  0.0000-1.00000  0.0000
CBEAM       1570       2    1723    1722  0.0000-1.00000  0.0000
CBEAM       1571       2    1722    1721  0.0000-1.00000  0.0000
CBEAM       1572       2    1721    1720  0.0000-1.00000  0.0000
CBEAM       1573       2    1720    1719  0.0000-1.00000  0.0000
CBEAM       1574       2    1719    1718  0.0000-1.00000  0.0000
CBEAM       1575       2    1718    1717  0.0000-1.00000  0.0000
CBEAM       1576       2    1717    1716  0.0000-1.00000  0.0000
CBEAM       1577       2    1716    1715  0.0000-1.00000  0.0000
CBEAM       1578       2    1715    1714  0.0000-1.00000  0.0000
CBEAM       1579       2    1714    1713  0.0000-1.00000  0.0000
CBEAM       1580       2    1713    1712  0.0000-1.00000  0.0000
CBEAM       1581       2    1712    1711  0.0000-1.00000  0.0000
CBEAM       1582       2    1711    1710  0.0000-1.00000  0.0000
CBEAM       1583       2    1710    1709  0.0000-1.00000  0.0000
CBEAM       1584       2    1709    1708  0.0000-1.00000  0.0000
CBEAM       1585       2    1708    1707  0.0000-1.00000  0.0000
CBEAM       1586       2    1707    1706  0.0000-1.00000  0.0000
CBEAM       1587       2    1706    1705  0.0000-1.00000  0.0000
CBEAM       1588       2    1705    1704  0.0000-1.00000  0.0000
CBEAM       1589       2    1704    1703  0.0000-1.00000  0.0000
CBEAM       1590       2    1703    1702  0.0000-1.00000  0.0000
CBEAM       1591       2    1702    1701  0.0000-1.00000  0.0000
CBEAM       1592       2    1701    1700  0.0000-1.00000  0.0000
CBEAM       1593       2    1700    1699  0.0000-1.00000  0.0000
CBEAM       1594       2    1699    1698  0.0000-1.00000  0.0000
CBEAM       1595       2    1698    1697  0.0000-1.00000  0.0000
CBEAM       1596       2    1697    1696  0.0000-1.00000  0.0000
CBEAM       1597       2    1696    1695  0.0000-1.00000  0.0000
CBEAM       1598       2    1695    1694  0.0000-1.00000  0.0000
CBEAM       1599       2    1694    1693  0.0000-1.00000  0.0000
CBEAM       1600       2    1693    1692  0.0000-1.00000  0.0000
CBEAM       1601       2    1692    1691  0.0000-1.00000  0.0000
CBEAM       1602       2    1691    1690  0.0000-1.00000  0.0000
CBEAM       1603       2    1690    1689  0.0000-1.00000  0.0000
CBEAM       1604       2    1689    1688  0.0000-1.00000  0.0000
CBEAM       1605       2    1688    1687  0.0000-1.00000  0.0000
CBEAM       1606       2    1687    1686  0.0000-1.00000  0.0000
CBEAM       1607       2    1686    1685  0.0000-1.00000  0.0000
CBEAM       1608       2    1685    1684  0.0000-1.00000  0.0000
CBEAM       1609       2    1684    1683  0.0000-1.00000  0.0000
CBEAM       1610       2    1683    1682  0.0000-1.00000  0.0000
CBEAM       1611       2    1682    1681  0.0000-1.00000  0.0000
CBEAM       1612       2    1681    1680  0.0000-1.00000  0.0000
CBEAM       1613       2    1680    1679  0.0000-1.00000  0.0000
CBEAM       1614       2    1679    1678  0.0000-1.00000  0.0000
CBEAM       1615       2    1678    1677  0.0000-1.00000  0.0000
CBEAM       1616       2    1677    1676  0.0000-1.00000  0.0000
CBEAM       1617       2    1676    1675  0.0000-1.00000  0.0000
CBEAM       1618       2    1675    1674  0.0000-1.00000  0.0000
CBEAM       1619       2    1674    1673  0.0000-1.00000  0.0000
CBEAM       1620       2    1673    1672  0.0000-1.00000  0.0000
CBEAM       1621       2    1672    1671  0.0000-1.00000  0.0000
CBEAM       1622       2    1671    1670  0.0000-1.00000  0.0000
CBEAM       1623       2    1670    1669  0.0000-1.00000  0.0000
CBEAM       1624       2    1669    1668  0.0000-1.00000  0.0000
CBEAM       1625       2    1668    1667  0.0000-1.00000  0.0000
CBEAM       1626       2    1667    1666  0.0000-1.00000  0.0000
CBEAM       1627       2    1666    1665  0.0000-1.00000  0.0000
CBEAM       1628       2    1665    1664  0.0000-1.00000  0.0000
CBEAM       1629       2    1664    1663  0.0000-1.00000  0.0000
CBEAM       1630       2    1663    1662  0.0000-1.00000  0.0000
CBEAM       1631       2    1662    1661  0.0000-1.00000  0.0000
CBEAM       1632       2    1661    1660  0.0000-1.00000  0.0000
CBEAM       1633       2    1660    1659  0.0000-1.00000  0.0000
CBEAM       1634       2    1659    1658  0.0000-1.00000  0.0000
CBEAM       1635       2    1658    1657  0.0000-1.00000  0.0000
CBEAM       1636       2    1657    1656  0.0000-1.00000  0.0000
CBEAM       1637       2    1656    1655  0.0000-1.00000  0.0000
CBEAM       1638       2    1655    1654  0.0000-1.00000  0.0000
CBEAM       1639       2    1654    1653  0.0000-1.00000  0.0000
CBEAM       1640       2    1653    1652  0.0000-1.00000  0.0000
CBEAM       1641       2    1652    1651  0.0000-1.00000  0.0000
CBEAM       1642       2    1651    1650  0.0000-1.00000  0.0000
CBEAM       1643       2    1650    1649  0.0000-1.00000  0.0000
CBEAM       1644       2    1649    1648  0.0000-1.00000  0.0000
CBEAM       1645       2    1648    1647  0.0000-1.00000  0.0000
CBEAM       1646       2    1647    1646  0.0000-1.00000  0.0000
CBEAM       1647       2    1646    1645  0.0000-1.00000  0.0000
CBEAM       1648       2    1645    1644  0.0000-1.00000  0.0000
CBEAM       1649       2    1644    1643  0.0000-1.00000  0.0000
CBEAM       1650       2    1643    1642  0.0000-1.00000  0.0000
CBEAM       1651       2    1642    1641  0.0000-1.00000  0.0000
CBEAM       1652       2    1641    1640  0.0000-1.00000  0.0000
CBEAM       1653       2    1640    1639  0.0000-1.00000  0.0000
CBEAM       1654       2    1639    1638  0.0000-1.00000  0.0000
CBEAM       1655       2    1638    1637  0.0000-1.00000  0.0000
CBEAM       1656       2    1637    1636  0.0000-1.00000  0.0000
CBEAM       1657       2    1636    1635  0.0000-1.00000  0.0000
CBEAM       1658       2    1635    1634  0.0000-1.00000  0.0000
CBEAM       1659       2    1634    1633  0.0000-1.00000  0.0000
CBEAM       1660       2    1633    1632  0.0000-1.00000  0.0000
CBEAM       1661       2    1632    1631  0.0000-1.00000  0.0000
CBEAM       1662       2    1631    1630  0.0000-1.00000  0.0000
CBEAM       1663       2    1630    1629  0.0000-1.00000  0.0000
CBEAM       1664       2    1629    1628  0.0000-1.00000  0.0000
CBEAM       1665       2    1628    1627  0.0000-1.00000  0.0000
CBEAM       1666       2    1627    1626  0.0000-1.00000  0.0000
CBEAM       1667       2    1626    1625  0.0000-1.00000  0.0000
CBEAM       1668       2    1625    1624  0.0000-1.00000  0.0000
CBEAM       1669       2    1624    1623  0.0000-1.00000  0.0000
CBEAM       1670       2    1623    1622  0.0000-1.00000  0.0000
CBEAM       1671       2    1622    1621  0.0000-1.00000  0.0000
CBEAM       1672       2    1621    1620  0.0000-1.00000  0.0000
CBEAM       1673       2    1620    1619  0.0000-1.00000  0.0000
CBEAM       1674       2    1619    1618  0.0000-1.00000  0.0000
CBEAM       1675       2    1618    1617  0.0000-1.00000  0.0000
CBEAM       1676       2    1617    1616  0.0000-1.00000  0.0000
CBEAM       1677       2    1616    1615  0.0000-1.00000  0.0000
CBEAM       1678       2    1615    1614  0.0000-1.00000  0.0000
CBEAM       1679       2    1614    1613  0.0000-1.00000  0.0000
CBEAM       1680       2    1613    1612  0.0000-1.00000  0.0000
CBEAM       1681       2    1612    1611  0.0000-1.00000  0.0000
CBEAM       1682       2    1611    1610  0.0000-1.00000  0.0000
CBEAM       1683       2    1610    1609  0.0000-1.00000  0.0000
CBEAM       1684       2    1609    1608  0.0000-1.00000  0.0000
CBEAM       1685       2    1608    1607  0.0000-1.00000  0.0000
CBEAM       1686       2    1607    1606  0.0000-1.00000  0.0000
CBEAM       1687       2    1606    1605  0.0000-1.00000  0.0000
CBEAM       1688       2    1605    1604  0.0000-1.00000  0.0000
CBEAM       1689       2    1604    1603  0.0000-1.00000  0.0000
CBEAM       1690       2    1603    1602  0.0000-1.00000  0.0000
CBEAM       1691       2    1602    1601  0.0000-1.00000  0.0000
CBEAM       1692       2    1601    1600  0.0000-1.00000  0.0000
CBEAM       1693       2    1600    1599  0.0000-1.00000  0.0000
CBEAM       1694       2    1599    1598  0.0000-1.00000  0.0000
CBEAM       1695       2    1598    1597  0.0000-1.00000  0.0000
CBEAM       1696       2    1597    1596  0.0000-1.00000  0.0000
CBEAM       1697       2    1596    1595  0.0000-1.00000  0.0000
CBEAM       1698       2    1595    1594  0.0000-1.00000  0.0000
CBEAM       1699       2    1594    1593  0.0000-1.00000  0.0000
CBEAM       1700       2    1593    1592  0.0000-1.00000  0.0000
CBEAM       1701       2    1592    1591  0.0000-1.00000  0.0000
CBEAM       1702       2    1591    1590  0.0000-1.00000  0.0000
CBEAM       1703       2    1590    1589  0.0000-1.00000  0.0000
CBEAM       1704       2    1589    1588  0.0000-1.00000  0.0000
CBEAM       1705       2    1588    1587  0.0000-1.00000  0.0000
CBEAM       1706       2    1587    1586  0.0000-1.00000  0.0000
CBEAM       1707       2    1586    1585  0.0000-1.00000  0.0000
CBEAM       1708       2    1585    1584  0.0000-1.00000  0.0000
CBEAM       1709       2    1584    1583  0.0000-1.00000  0.0000
CBEAM       1710       2    1583    1582  0.0000-1.00000  0.0000
CBEAM       1711       2    1582    1581  0.0000-1.00000  0.0000
CBEAM       1712       2    1581    1580  0.0000-1.00000  0.0000
CBEAM       1713       2    1580    1579  0.0000-1.00000  0.0000
CBEAM       1714       2    1579    1578  0.0000-1.00000  0.0000
CBEAM       1715       2    1578    1577  0.0000-1.00000  0.0000
CBEAM       1716       2    1577    1576  0.0000-1.00000  0.0000
CBEAM       1717       2    1576    1575  0.0000-1.00000  0.0000
CBEAM       1718       2    1575    1574  0.0000-1.00000  0.0000
CBEAM       1719       2    1574    1573  0.0000-1.00000  0.0000
CBEAM       1720       2    1573    1572  0.0000-1.00000  0.0000
CBEAM       1721       2    1572    1571  0.0000-1.00000  0.0000
CBEAM       1722       2    1571    1570  0.0000-1.00000  0.0000
CBEAM       1723       2    1570    1569  0.0000-1.00000  0.0000
CBEAM       1724       2    1569    1568  0.0000-1.00000  0.0000
CBEAM       1725       2    1568    1567  0.0000-1.00000  0.0000
CBEAM       1726       2    1567    1566  0.0000-1.00000  0.0000
CBEAM       1727       2    1566    1565  0.0000-1.00000  0.0000
CBEAM       1728       2    1565    1564  0.0000-1.00000  0.0000
CBEAM       1729       2    1564    1563  0.0000-1.00000  0.0000
CBEAM       1730       2    1563    1562  0.0000-1.00000  0.0000
CBEAM       1731       2    1562    1561  0.0000-1.00000  0.0000
CBEAM       1732       2    1561    1560  0.0000-1.00000  0.0000
CBEAM       1733       2    1560    1559  0.0000-1.00000  0.0000
CBEAM       1734       2    1559    1558  0.0000-1.00000  0.0000
CBEAM       1735       2    1558    1557  0.0000-1.00000  0.0000
CBEAM       1736       2    1557    1556  0.0000-1.00000  0.0000
CBEAM       1737       2    1556    1555  0.0000-1.00000  0.0000
CBEAM       1738       2    1555    1554  0.0000-1.00000  0.0000
CBEAM       1739       2    1554    1553  0.0000-1.00000  0.0000
CBEAM       1740       2    1553    1552  0.0000-1.00000  0.0000
CBEAM       1741       2    1552    1551  0.0000-1.00000  0.0000
CBEAM       1742       2    1551    1550  0.0000-1.00000  0.0000
CBEAM       1743       2    1550    1549  0.0000-1.00000  0.0000
CBEAM       1744       2    1549    1548  0.0000-1.00000  0.0000
CBEAM       1745       2    1548    1547  0.0000-1.00000  0.0000
CBEAM       1746       2    1547    1546  0.0000-1.00000  0.0000
CBEAM       1747       2    1546    1545  0.0000-1.00000  0.0000
CBEAM       1748       2    1545    1544  0.0000-1.00000  0.0000
CBEAM       1749       2    1544    1543  0.0000-1.00000  0.0000
CBEAM       1750       2    1543    1542  0.0000-1.00000  0.0000
CBEAM       1751       2    1542    1541  0.0000-1.00000  0.0000
CBEAM       1752       2    1541    1540  0.0000-1.00000  0.0000
CBEAM       1753       2    1540    1539  0.0000-1.00000  0.0000
CBEAM       1754       2    1539    1538  0.0000-1.00000  0.0000
CBEAM       1755       2    1538    1537  0.0000-1.00000  0.0000
CBEAM       1756       2    1537    1536  0.0000-1.00000  0.0000
CBEAM       1757       2    1536    1535  0.0000-1.00000  0.0000
CBEAM       1758       2    1535    1534  0.0000-1.00000  0.0000
CBEAM       1759       2    1534    1533  0.0000-1.00000  0.0000
CBEAM       1760       2    1533    1532  0.0000-1.00000  0.0000
CBEAM       1761       2    1532    1531  0.0000-1.00000  0.0000
CBEAM       1762       2    1531    1530  0.0000-1.00000  0.0000
CBEAM       1763       2    1530    1529  0.0000-1.00000  0.0000
CBEAM       1764       2    1529    1528  0.0000-1.00000  0.0000
CBEAM       1765       2    1528    1527  0.0000-1.00000  0.0000
CBEAM       1766       2    1527    1526  0.0000-1.00000  0.0000
CBEAM       1767       2    1526    1525  0.0000-1.00000  0.0000
CBEAM       1768       2    1525    1524  0.0000-1.00000  0.0000
CBEAM       1769       2    1524    1523  0.0000-1.00000  0.0000
CBEAM       1770       2    1523    1522  0.0000-1.00000  0.0000
CBEAM       1771       2    1522    1521  0.0000-1.00000  0.0000
CBEAM       1772       2    1521    1520  0.0000-1.00000  0.0000
CBEAM       1773       2    1520    1519  0.0000-1.00000  0.0000
CBEAM       1774       2    1519    1518  0.0000-1.00000  0.0000
CBEAM       1775       2    1518    1517  0.0000-1.00000  0.0000
CBEAM       1776       2    1517    1516  0.0000-1.00000  0.0000
CBEAM       1777       2    1516    1515  0.0000-1.00000  0.0000
CBEAM       1778       2    1515    1514  0.0000-1.00000  0.0000
CBEAM       1779       2    1514    1513  0.0000-1.00000  0.0000
CBEAM       1780       2    1513    1512  0.0000-1.00000  0.0000
CBEAM       1781       2    1512    1511  0.0000-1.00000  0.0000
CBEAM       1782       2    1511    1510  0.0000-1.00000  0.0000
CBEAM       1783       2    1510    1509  0.0000-1.00000  0.0000
CBEAM       1784       2    1509    1508  0.0000-1.00000  0.0000
CBEAM       1785       2    1508    1507  0.0000-1.00000  0.0000
CBEAM       1786       2    1507    1506  0.0000-1.00000  0.0000
CBEAM       1787       2    1506    1505  0.0000-1.00000  0.0000
CBEAM       1788       2    1505    1504  0.0000-1.00000  0.0000
CBEAM       1789       2    1504    1503  0.0000-1.00000  0.0000
CBEAM       1790       2    1503    1502  0.0000-1.00000  0.0000
CBEAM       1791       2    1502    1501  0.0000-1.00000  0.0000
CBEAM       1792       2    1501    1500  0.0000-1.00000  0.0000
CBEAM       1793       2    1500    1499  0.0000-1.00000  0.0000
CBEAM       1794       2    1499    1498  0.0000-1.00000  0.0000
CBEAM       1795       2    1498    1497  0.0000-1.00000  0.0000
CBEAM       1796       2    1497    1496  0.0000-1.00000  0.0000
CBEAM       1797       2    1496    1495  0.0000-1.00000  0.0000
CBEAM       1798       2    1495    1494  0.0000-1.00000  0.0000
CBEAM       1799       2    1494    1493  0.0000-1.00000  0.0000
CBEAM       1800       2    1493    1492  0.0000-1.00000  0.0000
CBEAM       1801       2    1492    1491  0.0000-1.00000  0.0000
CBEAM       1802       2    1491    1490  0.0000-1.00000  0.0000
CBEAM       1803       2    1490    1489  0.0000-1.00000  0.0000
CBEAM       1804       2    1489    1488  0.0000-1.00000  0.0000
CBEAM       1805       2    1488    1487  0.0000-1.00000  0.0000
CBEAM       1806       2    1487    1486  0.0000-1.00000  0.0000
CBEAM       1807       2    1486    1485  0.0000-1.00000  0.0000
CBEAM       1808       2    1485    1484  0.0000-1.00000  0.0000
CBEAM       1809       2    1484    1483  0.0000-1.00000  0.0000
CBEAM       1810       2    1483    1482  0.0000-1.00000  0.0000
CBEAM       1811       2    1482    1481  0.0000-1.00000  0.0000
CBEAM       1812       2    1481    1480  0.0000-1.00000  0.0000
CBEAM       1813       2    1480    1479  0.0000-1.00000  0.0000
CBEAM       1814       2    1479    1478  0.0000-1.00000  0.0000
CBEAM       1815       2    1478    1477  0.0000-1.00000  0.0000
CBEAM       1816       2    1477    1476  0.0000-1.00000  0.0000
CBEAM       1817       2    1476    1475  0.0000-1.00000  0.0000
CBEAM       1818       2    1475    1474  0.0000-1.00000  0.0000
CBEAM       1819       2    1474    1473  0.0000-1.00000  0.0000
CBEAM       1820       2    1473    1472  0.0000-1.00000  0.0000
CBEAM       1821       2    1472    1471  0.0000-1.00000  0.0000
CBEAM       1822       2    1471    1470  0.0000-1.00000  0.0000
CBEAM       1823       2    1470    1469  0.0000-1.00000  0.0000
CBEAM       1824       2    1469    1468  0.0000-1.00000  0.0000
CBEAM       1825       2    1468    1467  0.0000-1.00000  0.0000
CBEAM       1826       2    1467    1466  0.0000-1.00000  0.0000
CBEAM       1827       2    1466    1465  0.0000-1.00000  0.0000
CBEAM       1828       2    1465    1464  0.0000-1.00000  0.0000
CBEAM       1829       2    1464    1463  0.0000-1.00000  0.0000
CBEAM       1830       2    1463    1462  0.0000-1.00000  0.0000
CBEAM       1831       2    1462    1461  0.0000-1.00000  0.0000
CBEAM       1832       2    1461    1460  0.0000-1.00000  0.0000
CBEAM       1833       2    1460    1459  0.0000-1.00000  0.0000
CBEAM       1834       2    1459    1458  0.0000-1.00000  0.0000
CBEAM       1835       2    1458    1457  0.0000-1.00000  0.0000
CBEAM       1836       2    1457    1456  0.0000-1.00000  0.0000
CBEAM       1837       2    1456    1455  0.0000-1.00000  0.0000
CBEAM       1838       2    1455    1454  0.0000-1.00000  0.0000
CBEAM       1839       2    1454    1453  0.0000-1.00000  0.0000
CBEAM       1840       2    1453    1452  0.0000-1.00000  0.0000
CBEAM       1841       2    1452    1451  0.0000-1.00000  0.0000
CBEAM       1842       2    1451    1450  0.0000-1.00000  0.0000
CBEAM       1843       2    1450    1449  0.0000-1.00000  0.0000
CBEAM       1844       2    1449    1448  0.0000-1.00000  0.0000
CBEAM       1845       2    1448    1447  0.0000-1.00000  0.0000
CBEAM       1846       2    1447    1446  0.0000-1.00000  0.0000
CBEAM       1847       2    1446    1445  0.0000-1.00000  0.0000
CBEAM       1848       2    1445    1444  0.0000-1.00000  0.0000
CBEAM       1849       2    1444    1443  0.0000-1.00000  0.0000
CBEAM       1850       2    1443    1442  0.0000-1.00000  0.0000
CBEAM       1851       2    1442    1441  0.0000-1.00000  0.0000
CBEAM       1852       2    1441    1440  0.0000-1.00000  0.0000
CBEAM       1853       2    1440    1439  0.0000-1.00000  0.0000
CBEAM       1854       2    1439    1438  0.0000-1.00000  0.0000
CBEAM       1855       2    1438    1437  0.0000-1.00000  0.0000
CBEAM       1856       2    1437    1436  0.0000-1.00000  0.0000
CBEAM       1857       2    1436    1435  0.0000-1.00000  0.0000
CBEAM       1858       2    1435    1434  0.0000-1.00000  0.0000
CBEAM       1859       2    1434    1433  0.0000-1.00000  0.0000
CBEAM       1860       2    1433    1432  0.0000-1.00000  0.0000
CBEAM       1861       2    1432    1431  0.0000-1.00000  0.0000
CBEAM       1862       2    1431    1430  0.0000-1.00000  0.0000
CBEAM       1863       2    1430    1429  0.0000-1.00000  0.0000
CBEAM       1864       2    1429    1428  0.0000-1.00000  0.0000
CBEAM       1865       2    1428    1427  0.0000-1.00000  0.0000
CBEAM       1866       2    1427    1426  0.0000-1.00000  0.0000
CBEAM       1867       2    1426    1425  0.0000-1.00000  0.0000
CBEAM       1868       2    1425    1424  0.0000-1.00000  0.0000
CBEAM       1869       2    1424    1423  0.0000-1.00000  0.0000
CBEAM       1870       2    1423    1422  0.0000-1.00000  0.0000
CBEAM       1871       2    1422    1421  0.0000-1.00000  0.0000
CBEAM       1872       2    1421    1420  0.0000-1.00000  0.0000
CBEAM       1873       2    1420    1419  0.0000-1.00000  0.0000
CBEAM       1874       2    1419    1418  0.0000-1.00000  0.0000
CBEAM       1875       2    1418    1417  0.0000-1.00000  0.0000
CBEAM       1876       2    1417    1416  0.0000-1.00000  0.0000
CBEAM       1877       2    1416    1415  0.0000-1.00000  0.0000
CBEAM       1878       2    1415    1414  0.0000-1.00000  0.0000
CBEAM       1879       2    1414    1413  0.0000-1.00000  0.0000
CBEAM       1880       2    1413    1412  0.0000-1.00000  0.0000
CBEAM       1881       2    1412    1411  0.0000-1.00000  0.0000
CBEAM       1882       2    1411    1410  0.0000-1.00000  0.0000
CBEAM       1883       2    1410    1409  0.0000-1.00000  0.0000
CBEAM       1884       2    1409    1408  0.0000-1.00000  0.0000
CBEAM       1885       2    1408    1407  0.0000-1.00000  0.0000
CBEAM       1886       2    1407    1406  0.0000-1.00000  0.0000
CBEAM       1887       2    1406    1405  0.0000-1.00000  0.0000
CBEAM       1888       2    1405    1404  0.0000-1.00000  0.0000
CBEAM       1889       2    1404    1403  0.0000-1.00000  0.0000
CBEAM       1890       2    1403    1402  0.0000-1.00000  0.0000
CBEAM       1891       2    1402    1401  0.0000-1.00000  0.0000
CBEAM       1892       2    1401    1400  0.0000-1.00000  0.0000
CBEAM       1893       2    1400    1399  0.0000-1.00000  0.0000
CBEAM       1894       2    1399    1398  0.0000-1.00000  0.0000
CBEAM       1895       2    1398    1397  0.0000-1.00000  0.0000
CBEAM       1896       2    1397    1396  0.0000-1.00000  0.0000
CBEAM       1897       2    1396    1395  0.0000-1.00000  0.0000
CBEAM       1898       2    1395    1394  0.0000-1.00000  0.0000
CBEAM       1899       2    1394    1393  0.0000-1.00000  0.0000
CBEAM       1900       2    1393    1392  0.0000-1.00000  0.0000
CBEAM       1901       2    1392    1391  0.0000-1.00000  0.0000
CBEAM       1902       2    1391    1390  0.0000-1.00000  0.0000
CBEAM       1903       2    1390    1389  0.0000-1.00000  0.0000
CBEAM       1904       2    1389    1388  0.0000-1.00000  0.0000
CBEAM       1905       2    1388    1387  0.0000-1.00000  0.0000
CBEAM       1906       2    1387    1386  0.0000-1.00000  0.0000
CBEAM       1907       2    1386    1385  0.0000-1.00000  0.0000
CBEAM       1908       2    1385    1384  0.0000-1.00000  0.0000
CBEAM       1909       2    1384    1383  0.0000-1.00000  0.0000
CBEAM       1910       2    1383    1382  0.0000-1.00000  0.0000
CBEAM       1911       2    1382    1381  0.0000-1.00000  0.0000
CBEAM       1912       2    1381    1380  0.0000-1.00000  0.0000
CBEAM       1913       2    1380    1379  0.0000-1.00000  0.0000
CBEAM       1914       2    1379    1378  0.0000-1.00000  0.0000
CBEAM       1915       2    1378    1377  0.0000-1.00000  0.0000
CBEAM       1916       2    1377    1376  0.0000-1.00000  0.0000
CBEAM       1917       2    1376    1375  0.0000-1.00000  0.0000
CBEAM       1918       2    1375    1374  0.0000-1.00000  0.0000
CBEAM       1919       2    1374    1373  0.0000-1.00000  0.0000
CBEAM       1920       2    1373    1372  0.0000-1.00000  0.0000
CBEAM       1921       2    1372    1371  0.0000-1.00000  0.0000
CBEAM       1922       2    1371    1370  0.0000-1.00000  0.0000
CBEAM       1923       2    1370    1369  0.0000-1.00000  0.0000
CBEAM       1924       2    1369    1368  0.0000-1.00000  0.0000
CBEAM       1925       2    1368    1367  0.0000-1.00000  0.0000
CBEAM       1926       2    1367    1366  0.0000-1.00000  0.0000
CBEAM       1927       2    1366    1365  0.0000-1.00000  0.0000
CBEAM       1928       2    1365    1364  0.0000-1.00000  0.0000
CBEAM       1929       2    1364    1363  0.0000-1.00000  0.0000
CBEAM       1930       2    1363    1362  0.0000-1.00000  0.0000
CBEAM       1931       2    1362    1361  0.0000-1.00000  0.0000
CBEAM       1932       2    1361    1360  0.0000-1.00000  0.0000
CBEAM       1933       2    1360    1359  0.0000-1.00000  0.0000
CBEAM       1934       2    1359    1358  0.0000-1.00000  0.0000
CBEAM       1935       2    1358    1357  0.0000-1.00000  0.0000
CBEAM       1936       2    1357    1356  0.0000-1.00000  0.0000
CBEAM       1937       2    1356    1355  0.0000-1.00000  0.0000
CBEAM       1938       2    1355    1354  0.0000-1.00000  0.0000
CBEAM       1939       2    1354    1353  0.0000-1.00000  0.0000
CBEAM       1940       2    1353    1352  0.0000-1.00000  0.0000
CBEAM       1941       2    1352    1351  0.0000-1.00000  0.0000
CBEAM       1942       2    1351    1350  0.0000-1.00000  0.0000
CBEAM       1943       2    1350    1349  0.0000-1.00000  0.0000
CBEAM       1944       2    1349    1348  0.0000-1.00000  0.0000
CBEAM       1945       2    1348    1347  0.0000-1.00000  0.0000
CBEAM       1946       2    1347    1346  0.0000-1.00000  0.0000
CBEAM       1947       2    1346    1345  0.0000-1.00000  0.0000
CBEAM       1948       2    1345    1344  0.0000-1.00000  0.0000
CBEAM       1949       2    1344    1343  0.0000-1.00000  0.0000
CBEAM       1950       2    1343    1342  0.0000-1.00000  0.0000
CBEAM       1951       2    1342    1341  0.0000-1.00000  0.0000
CBEAM       1952       2    1341    1340  0.0000-1.00000  0.0000
CBEAM       1953       2    1340    1339  0.0000-1.00000  0.0000
CBEAM       1954       2    1339    1338  0.0000-1.00000  0.0000
CBEAM       1955       2    1338    1337  0.0000-1.00000  0.0000
CBEAM       1956       2    1337    1336  0.0000-1.00000  0.0000
CBEAM       1957       2    1336    1335  0.0000-1.00000  0.0000
CBEAM       1958       2    1335    1334  0.0000-1.00000  0.0000
CBEAM       1959       2    1334    1333  0.0000-1.00000  0.0000
CBEAM       1960       2    1333    1332  0.0000-1.00000  0.0000
CBEAM       1961       2    1332    1331  0.0000-1.00000  0.0000
CBEAM       1962       2    1331    1330  0.0000-1.00000  0.0000
CBEAM       1963       2    1330    1329  0.0000-1.00000  0.0000
CBEAM       1964       2    1329    1328  0.0000-1.00000  0.0000
CBEAM       1965       2    1328    1327  0.0000-1.00000  0.0000
CBEAM       1966       2    1327    1326  0.0000-1.00000  0.0000
CBEAM       1967       2    1326    1325  0.0000-1.00000  0.0000
CBEAM       1968       2    1325    1324  0.0000-1.00000  0.0000
CBEAM       1969       2    1324    1323  0.0000-1.00000  0.0000
CBEAM       1970       2    1323    1322  0.0000-1.00000  0.0000
CBEAM       1971       2    1322    1321  0.0000-1.00000  0.0000
CBEAM       1972       2    1321    1320  0.0000-1.00000  0.0000
CBEAM       1973       2    1320    1319  0.0000-1.00000  0.0000
CBEAM       1974       2    1319    1318  0.0000-1.00000  0.0000
CBEAM       1975       2    1318    1317  0.0000-1.00000  0.0000
CBEAM       1976       2    1317    1316  0.0000-1.00000  0.0000
CBEAM       1977       2    1316    1315  0.0000-1.00000  0.0000
CBEAM       1978       2    1315    1314  0.0000-1.00000  0.0000
CBEAM       1979       2    1314    1313  0.0000-1.00000  0.0000
CBEAM       1980       2    1313    1312  0.0000-1.00000  0.0000
CBEAM       1981       2    1312    1311  0.0000-1.00000  0.0000
CBEAM       1982       2    1311    1310  0.0000-1.00000  0.0000
CBEAM       1983       2    1310    1309  0.0000-1.00000  0.0000
CBEAM       1984       2    1309    1308  0.0000-1.00000  0.0000
CBEAM       1985       2    1308    1307  0.0000-1.00000  0.0000
CBEAM       1986       2    1307    1306  0.0000-1.00000  0.0000
CBEAM       1987       2    1306    1305  0.0000-1.00000  0.0000
CBEAM       1988       2    1305    1304  0.0000-1.00000  0.0000
CBEAM       1989       2    1304    1303  0.0000-1.00000  0.0000
CBEAM       1990       2    1303    1302  0.0000-1.00000  0.0000
CBEAM       1991       2    1302    1301  0.0000-1.00000  0.0000
CBEAM       1992       2    1301    1300  0.0000-1.00000  0.0000
CBEAM       1993       2    1300    1299  0.0000-1.00000  0.0000
CBEAM       1994       2    1299    1298  0.0000-1.00000  0.0000
CBEAM       1995       2    1298    1297  0.0000-1.00000  0.0000
CBEAM       1996       2    1297    1296  0.0000-1.00000  0.0000
CBEAM       1997       2    1296    1295  0.0000-1.00000  0.0000
CBEAM       1998       2    1295    1294  0.0000-1.00000  0.0000
CBEAM       1999       2    1294    1293  0.0000-1.00000  0.0000
CBEAM       2000       2    1293    1292  0.0000-1.00000  0.0000
CBEAM       2001       2    1292    1291  0.0000-1.00000  0.0000
CBEAM       2002       2    1291    1290  0.0000-1.00000  0.0000
CBEAM       2003       2    1290    1289  0.0000-1.00000  0.0000
CBEAM       2004       2    1289    1288  0.0000-1.00000  0.0000
CBEAM       2005       2    1288    1287  0.0000-1.00000  0.0000
CBEAM       2006       2    1287    1286  0.0000-1.00000  0.0000
CBEAM       2007       2    1286    1285  0.0000-1.00000  0.0000
CBEAM       2008       2    1285    1284  0.0000-1.00000  0.0000
CBEAM       2009       2    1284    1283  0.0000-1.00000  0.0000
CBEAM       2010       2    1283    1282  0.0000-1.00000  0.0000
CBEAM       2011       2    1282    1281  0.0000-1.00000  0.0000
CBEAM       2012       2    1281    1280  0.0000-1.00000  0.0000
CBEAM       2013       2    1280    1279  0.0000-1.00000  0.0000
CBEAM       2014       2    1279    1278  0.0000-1.00000  0.0000
CBEAM       2015       2    1278    1277  0.0000-1.00000  0.0000
CBEAM       2016       2    1277    1276  0.0000-1.00000  0.0000
CBEAM       2017       2    1276    1275  0.0000-1.00000  0.0000
CBEAM       2018       2    1275    1274  0.0000-1.00000  0.0000
CBEAM       2019       2    1274    1273  0.0000-1.00000  0.0000
CBEAM       2020       2    1273    1272  0.0000-1.00000  0.0000
CBEAM       2021       2    1272    1271  0.0000-1.00000  0.0000
CBEAM       2022       2    1271    1270  0.0000-1.00000  0.0000
CBEAM       2023       2    1270    1269  0.0000-1.00000  0.0000
CBEAM       2024       2    1269    1268  0.0000-1.00000  0.0000
CBEAM       2025       2    1268    1267  0.0000-1.00000  0.0000
CBEAM       2026       2    1267    1266  0.0000-1.00000  0.0000
CBEAM       2027       2    1266    1265  0.0000-1.00000  0.0000
CBEAM       2028       2    1265    1264  0.0000-1.00000  0.0000
CBEAM       2029       2    1264    1263  0.0000-1.00000  0.0000
CBEAM       2030       2    1263    1262  0.0000-1.00000  0.0000
CBEAM       2031       2    1262    1261  0.0000-1.00000  0.0000
CBEAM       2032       2    1261    1260  0.0000-1.00000  0.0000
CBEAM       2033       2    1260    1259  0.0000-1.00000  0.0000
CBEAM       2034       2    1259    1258  0.0000-1.00000  0.0000
CBEAM       2035       2    1258    1257  0.0000-1.00000  0.0000
CBEAM       2036       2    1257    1256  0.0000-1.00000  0.0000
CBEAM       2037       2    1256    1255  0.0000-1.00000  0.0000
CBEAM       2038       2    1255    1254  0.0000-1.00000  0.0000
CBEAM       2039       2    1254    1253  0.0000-1.00000  0.0000
CBEAM       2040       2    1253    1252  0.0000-1.00000  0.0000
CBEAM       2041       2    1252    1251  0.0000-1.00000  0.0000
CBEAM       2042       2    1251    1250  0.0000-1.00000  0.0000
CBEAM       2043       2    1250    1249  0.0000-1.00000  0.0000
CBEAM       2044       2    1249    1248  0.0000-1.00000  0.0000
CBEAM       2045       2    1248    1247  0.0000-1.00000  0.0000
CBEAM       2046       2    1247    1246  0.0000-1.00000  0.0000
CBEAM       2047       2    1246    1245  0.0000-1.00000  0.0000
CBEAM       2048       2    1245    1244  0.0000-1.00000  0.0000
CBEAM       2049       2    1244    1243  0.0000-1.00000  0.0000
CBEAM       2050       2    1243    1242  0.0000-1.00000  0.0000
CBEAM       2051       2    1242    1241  0.0000-1.00000  0.0000
CBEAM       2052       2    1241    1240  0.0000-1.00000  0.0000
CBEAM       2053       2    1240    1239  0.0000-1.00000  0.0000
CBEAM       2054       2    1239    1238  0.0000-1.00000  0.0000
CBEAM       2055       2    1238    1237  0.0000-1.00000  0.0000
CBEAM       2056       2    1237    1236  0.0000-1.00000  0.0000
CBEAM       2057       2    1236    1235  0.0000-1.00000  0.0000
CBEAM       2058       2    1235    1234  0.0000-1.00000  0.0000
CBEAM       2059       2    1234    1233  0.0000-1.00000  0.0000
CBEAM       2060       2    1233    1232  0.0000-1.00000  0.0000
CBEAM       2061       2    1232    1231  0.0000-1.00000  0.0000
CBEAM       2062       2    1231    1230  0.0000-1.00000  0.0000
CBEAM       2063       2    1230    1229  0.0000-1.00000  0.0000
CBEAM       2064       2    1229    1228  0.0000-1.00000  0.0000
CBEAM       2065       2    1228    1227  0.0000-1.00000  0.0000
CBEAM       2066       2    1227    1226  0.0000-1.00000  0.0000
CBEAM       2067       2    1226    1225  0.0000-1.00000  0.0000
CBEAM       2068       2    1225    1224  0.0000-1.00000  0.0000
CBEAM       2069       2    1224    1223  0.0000-1.00000  0.0000
CBEAM       2070       2    1223    1222  0.0000-1.00000  0.0000
CBEAM       2071       2    1222    1221  0.0000-1.00000  0.0000
CBEAM       2072       2    1221    1220  0.0000-1.00000  0.0000
CBEAM       2073       2    1220    1219  0.0000-1.00000  0.0000
CBEAM       2074       2    1219    1218  0.0000-1.00000  0.0000
CBEAM       2075       2    1218    1217  0.0000-1.00000  0.0000
CBEAM       2076       2    1217    1216  0.0000-1.00000  0.0000
CBEAM       2077       2    1216    1215  0.0000-1.00000  0.0000
CBEAM       2078       2    1215    1214  0.0000-1.00000  0.0000
CBEAM       2079       2    1214    1213  0.0000-1.00000  0.0000
CBEAM       2080       2    1213    1212  0.0000-1.00000  0.0000
CBEAM       2081       2    1212    1211  0.0000-1.00000  0.0000
CBEAM       2082       2    1211    1210  0.0000-1.00000  0.0000
CBEAM       2083       2    1210    1209  0.0000-1.00000  0.0000
CBEAM       2084       2    1209    1208  0.0000-1.00000  0.0000
CBEAM       2085       2    1208    1207  0.0000-1.00000  0.0000
CBEAM       2086       2    1207    1206  0.0000-1.00000  0.0000
CBEAM       2087       2    1206    1205  0.0000-1.00000  0.0000
CBEAM       2088       2    1205    1204  0.0000-1.00000  0.0000
CBEAM       2089       2    1204    1203  0.0000-1.00000  0.0000
CBEAM       2090       2    1203    1202  0.0000-1.00000  0.0000
CBEAM       2091       2    1202    1201  0.0000-1.00000  0.0000
CBEAM       2092       2    1201    1200  0.0000-1.00000  0.0000
CBEAM       2093       2    1200    1199  0.0000-1.00000  0.0000
CBEAM       2094       2    1199    1198  0.0000-1.00000  0.0000
CBEAM       2095       2    1198    1197  0.0000-1.00000  0.0000
CBEAM       2096       2    1197    1196  0.0000-1.00000  0.0000
CBEAM       2097       2    1196    1195  0.0000-1.00000  0.0000
CBEAM       2098       2    1195    1194  0.0000-1.00000  0.0000
CBEAM       2099       2    1194    1193  0.0000-1.00000  0.0000
CBEAM       2100       2    1193    1192  0.0000-1.00000  0.0000
CBEAM       2101       2    1192    1191  0.0000-1.00000  0.0000
CBEAM       2102       2    1191    1190  0.0000-1.00000  0.0000
CBEAM       2103       2    1190    1189  0.0000-1.00000  0.0000
CBEAM       2104       2    1189    1188  0.0000-1.00000  0.0000
CBEAM       2105       2    1188    1187  0.0000-1.00000  0.0000
CBEAM       2106       2    1187    1186  0.0000-1.00000  0.0000
CBEAM       2107       2    1186    1185  0.0000-1.00000  0.0000
CBEAM       2108       2    1185    1184  0.0000-1.00000  0.0000
CBEAM       2109       2    1184    1183  0.0000-1.00000  0.0000
CBEAM       2110       2    1183    1182  0.0000-1.00000  0.0000
CBEAM       2111       2    1182    1181  0.0000-1.00000  0.0000
CBEAM       2112       2    1181    1180  0.0000-1.00000  0.0000
CBEAM       2113       2    1180    1179  0.0000-1.00000  0.0000
CBEAM       2114       2    1179    1178  0.0000-1.00000  0.0000
CBEAM       2115       2    1178    1177  0.0000-1.00000  0.0000
CBEAM       2116       2    1177    1176  0.0000-1.00000  0.0000
CBEAM       2117       2    1176    1175  0.0000-1.00000  0.0000
CBEAM       2118       2    1175    1174  0.0000-1.00000  0.0000
CBEAM       2119       2    1174    1173  0.0000-1.00000  0.0000
CBEAM       2120       2    1173    1172  0.0000-1.00000  0.0000
CBEAM       2121       2    1172    1171  0.0000-1.00000  0.0000
CBEAM       2122       2    1171    1170  0.0000-1.00000  0.0000
CBEAM       2123       2    1170    1169  0.0000-1.00000  0.0000
CBEAM       2124       2    1169    1168  0.0000-1.00000  0.0000
CBEAM       2125       2    1168    1167  0.0000-1.00000  0.0000
CBEAM       2126       2    1167    1166  0.0000-1.00000  0.0000
CBEAM       2127       2    1166    1165  0.0000-1.00000  0.0000
CBEAM       2128       2    1165    1164  0.0000-1.00000  0.0000
CBEAM       2129       2    1164    1163  0.0000-1.00000  0.0000
CBEAM       2130       2    1163    1162  0.0000-1.00000  0.0000
CBEAM       2131       2    1162    1161  0.0000-1.00000  0.0000
CBEAM       2132       2    1161    1160  0.0000-1.00000  0.0000
CBEAM       2133       2    1160    1159  0.0000-1.00000  0.0000
CBEAM       2134       2    1159    1158  0.0000-1.00000  0.0000
CBEAM       2135       2    1158    1157  0.0000-1.00000  0.0000
CBEAM       2136       2    1157    1156  0.0000-1.00000  0.0000
CBEAM       2137       2    1156    1155  0.0000-1.00000  0.0000
CBEAM       2138       2    1155    1154  0.0000-1.00000  0.0000
CBEAM       2139       2    1154    1153  0.0000-1.00000  0.0000
CBEAM       2140       2    1153    1152  0.0000-1.00000  0.0000
CBEAM       2141       2    1152    1151  0.0000-1.00000  0.0000
CBEAM       2142       2    1151    1150  0.0000-1.00000  0.0000
CBEAM       2143       2    1150    1149  0.0000-1.00000  0.0000
CBEAM       2144       2    1149    1148  0.0000-1.00000  0.0000
CBEAM       2145       2    1148    1147  0.0000-1.00000  0.0000
CBEAM       2146       2    1147    1146  0.0000-1.00000  0.0000
CBEAM       2147       2    1146    1145  0.0000-1.00000  0.0000
CBEAM       2148       2    1145    1144  0.0000-1.00000  0.0000
CBEAM       2149       2    1144    1143  0.0000-1.00000  0.0000
CBEAM       2150       2    1143    1142  0.0000-1.00000  0.0000
CBEAM       2151       2    1142    1141  0.0000-1.00000  0.0000
CBEAM       2152       2    1141    1140  0.0000-1.00000  0.0000
CBEAM       2153       2    1140    1139  0.0000-1.00000  0.0000
CBEAM       2154       2    1139    1138  0.0000-1.00000  0.0000
CBEAM       2155       2    1138    1137  0.0000-1.00000  0.0000
CBEAM       2156       2    1137    1136  0.0000-1.00000  0.0000
CBEAM       2157       2    1136    1135  0.0000-1.00000  0.0000
CBEAM       2158       2    1135    1134  0.0000-1.00000  0.0000
CBEAM       2159       2    1134    1133  0.0000-1.00000  0.0000
CBEAM       2160       2    1133    1132  0.0000-1.00000  0.0000
CBEAM       2161       2    1132    1131  0.0000-1.00000  0.0000
CBEAM       2162       2    1131    1130  0.0000-1.00000  0.0000
CBEAM       2163       2    1130    1129  0.0000-1.00000  0.0000
CBEAM       2164       2    1129    1128  0.0000-1.00000  0.0000
CBEAM       2165       2    1128    1127  0.0000-1.00000  0.0000
CBEAM       2166       2    1127    1126  0.0000-1.00000  0.0000
CBEAM       2167       2    1126    1125  0.0000-1.00000  0.0000
CBEAM       2168       2    1125    1124  0.0000-1.00000  0.0000
CBEAM       2169       2    1124    1123  0.0000-1.00000  0.0000
CBEAM       2170       2    1123    1122  0.0000-1.00000  0.0000
CBEAM       2171       2    1122    1121  0.0000-1.00000  0.0000
CBEAM       2172       2    1121    1120  0.0000-1.00000  0.0000
CBEAM       2173       2    1120    1119  0.0000-1.00000  0.0000
CBEAM       2174       2    1119    1118  0.0000-1.00000  0.0000
CBEAM       2175       2    1118    1117  0.0000-1.00000  0.0000
CBEAM       2176       2    1117    1116  0.0000-1.00000  0.0000
CBEAM       2177       2    1116    1115  0.0000-1.00000  0.0000
CBEAM       2178       2    1115    1114  0.0000-1.00000  0.0000
CBEAM       2179       2    1114    1113  0.0000-1.00000  0.0000
CBEAM       2180       2    1113    1112  0.0000-1.00000  0.0000
CBEAM       2181       2    1112    1111  0.0000-1.00000  0.0000
CBEAM       2182       2    1111    1110  0.0000-1.00000  0.0000
CBEAM       2183       2    1110    1109  0.0000-1.00000  0.0000
CBEAM       2184       2    1109    1108  0.0000-1.00000  0.0000
CBEAM       2185       2    1108    1107  0.0000-1.00000  0.0000
CBEAM       2186       2    1107    1106  0.0000-1.00000  0.0000
CBEAM       2187       2    1106    1105  0.0000-1.00000  0.0000
CBEAM       2188       2    1105    1104  0.0000-1.00000  0.0000
CBEAM       2189       2    1104    1103  0.0000-1.00000  0.0000
CBEAM       2190       2    1103    1102  0.0000-1.00000  0.0000
CBEAM       2191       2    1102    1101  0.0000-1.00000  0.0000
CBEAM       2192       2    1101    1100  0.0000-1.00000  0.0000
CBEAM       2193       2    1100    1099  0.0000-1.00000  0.0000
CBEAM       2194       2    1099    1098  0.0000-1.00000  0.0000
CBEAM       2195       2    1098    1097  0.0000-1.00000  0.0000
CBEAM       2196       2    1097    1096  0.0000-1.00000  0.0000
CBEAM       2197       2    1096    1095  0.0000-1.00000  0.0000
CBEAM       2198       2    1095    1094  0.0000-1.00000  0.0000
CBEAM       2199       2    1094    1093  0.0000-1.00000  0.0000
CBEAM       2200       2    1093    1092  0.0000-1.00000  0.0000
CBEAM       2201       2    1092    1091  0.0000-1.00000  0.0000
CBEAM       2202       2    1091    1090  0.0000-1.00000  0.0000
CBEAM       2203       2    1090    1089  0.0000-1.00000  0.0000
CBEAM       2204       2    1089    1088  0.0000-1.00000  0.0000
CBEAM       2205       2    1088    1087  0.0000-1.00000  0.0000
CBEAM       2206       2    1087    1086  0.0000-1.00000  0.0000
CBEAM       2207       2    1086    1085  0.0000-1.00000  0.0000
CBEAM       2208       2    1085    1084  0.0000-1.00000  0.0000
CBEAM       2209       2    1084    1083  0.0000-1.00000  0.0000
CBEAM       2210       2    1083    1082  0.0000-1.00000  0.0000
CBEAM       2211       2    1082    1081  0.0000-1.00000  0.0000
CBEAM       2212       2    1081    1080  0.0000-1.00000  0.0000
CBEAM       2213       2    1080    1079  0.0000-1.00000  0.0000
CBEAM       2214       2    1079    1078  0.0000-1.00000  0.0000
CBEAM       2215       2    1078    1077  0.0000-1.00000  0.0000
CBEAM       2216       2    1077    1076  0.0000-1.00000  0.0000
CBEAM       2217       2    1076    1075  0.0000-1.00000  0.0000
CBEAM       2218       2    1075    1074  0.0000-1.00000  0.0000
CBEAM       2219       2    1074    1073  0.0000-1.00000  0.0000
CBEAM       2220       2    1073    1072  0.0000-1.00000  0.0000
CBEAM       2221       2    1072    1071  0.0000-1.00000  0.0000
CBEAM       2222       2    1071    1070  0.0000-1.00000  0.0000
CBEAM       2223       2    1070    1069  0.0000-1.00000  0.0000
CBEAM       2224       2    1069    1068  0.0000-1.00000  0.0000
CBEAM       2225       2    1068    1067  0.0000-1.00000  0.0000
CBEAM       2226       2    1067    1066  0.0000-1.00000  0.0000
CBEAM       2227       2    1066    1065  0.0000-1.00000  0.0000
CBEAM       2228       2    1065    1064  0.0000-1.00000  0.0000
CBEAM       2229       2    1064    1063  0.0000-1.00000  0.0000
CBEAM       2230       2    1063    1062  0.0000-1.00000  0.0000
CBEAM       2231       2    1062    1061  0.0000-1.00000  0.0000
CBEAM       2232       2    1061    1060  0.0000-1.00000  0.0000
CBEAM       2233       2    1060    1059  0.0000-1.00000  0.0000
CBEAM       2234       2    1059    1058  0.0000-1.00000  0.0000
CBEAM       2235       2    1058    1057  0.0000-1.00000  0.0000
CBEAM       2236       2    1057    1056  0.0000-1.00000  0.0000
CBEAM       2237       2    1056    1055  0.0000-1.00000  0.0000
CBEAM       2238       2    1055    1054  0.0000-1.00000  0.0000
CBEAM       2239       2    1054    1053  0.0000-1.00000  0.0000
CBEAM       2240       2    1053    1052  0.0000-1.00000  0.0000
CBEAM       2241       2    1052    1051  0.0000-1.00000  0.0000
CBEAM       2242       2    1051    1050  0.0000-1.00000  0.0000
CBEAM       2243       2    1050    1049  0.0000-1.00000  0.0000
CBEAM       2244       2    1049    1048  0.0000-1.00000  0.0000
CBEAM       2245       2    1048    1047  0.0000-1.00000  0.0000
CBEAM       2246       2    1047    1046  0.0000-1.00000  0.0000
CBEAM       2247       2    1046    1045  0.0000-1.00000  0.0000
CBEAM       2248       2    1045    1044  0.0000-1.00000  0.0000
CBEAM       2249       2    1044    1043  0.0000-1.00000  0.0000
CBEAM       2250       2    1043    1042  0.0000-1.00000  0.0000
CBEAM       2251       2    1042    1041  0.0000-1.00000  0.0000
CBEAM       2252       2    1041    1040  0.0000-1.00000  0.0000
CBEAM       2253       2    1040    1039  0.0000-1.00000  0.0000
CBEAM       2254       2    1039    1038  0.0000-1.00000  0.0000
CBEAM       2255       2    1038    1037  0.0000-1.00000  0.0000
CBEAM       2256       2    1037    1036  0.0000-1.00000  0.0000
CBEAM       2257       2    1036    1035  0.0000-1.00000  0.0000
CBEAM       2258       2    1035    1034  0.0000-1.00000  0.0000
CBEAM       2259       2    1034    1033  0.0000-1.00000  0.0000
CBEAM       2260       2    1033    1032  0.0000-1.00000  0.0000
CBEAM       2261       2    1032    1031  0.0000-1.00000  0.0000
CBEAM       2262       2    1031    1030  0.0000-1.00000  0.0000
CBEAM       2263       2    1030    1029  0.0000-1.00000  0.0000
CBEAM       2264       2    1029    1028  0.0000-1.00000  0.0000
CBEAM       2265       2    1028    1027  0.0000-1.00000  0.0000
CBEAM       2266       2    1027    1026  0.0000-1.00000  0.0000
CBEAM       2267       2    1026    1025  0.0000-1.00000  0.0000
CBEAM       2268       2    1025    1024  0.0000-1.00000  0.0000
CBEAM       2269       2    1024    1023  0.0000-1.00000  0.0000
CBEAM       2270       2    1023    1022  0.0000-1.00000  0.0000
CBEAM       2271       2    1022    1021  0.0000-1.00000  0.0000
CBEAM       2272       2    1021    1020  0.0000-1.00000  0.0000
CBEAM       2273       2    1020    1019  0.0000-1.00000  0.0000
CBEAM       2274       2    1019    1018  0.0000-1.00000  0.0000
CBEAM       2275       2    1018    1017  0.0000-1.00000  0.0000
CBEAM       2276       2    1017    1016  0.0000-1.00000  0.0000
CBEAM       2277       2    1016    1015  0.0000-1.00000  0.0000
CBEAM       2278       2    1015    1014  0.0000-1.00000  0.0000
CBEAM       2279       2    1014    1013  0.0000-1.00000  0.0000
CBEAM       2280       2    1013    1012  0.0000-1.00000  0.0000
CBEAM       2281       2    1012    1011  0.0000-1.00000  0.0000
CBEAM       2282       2    1011    1010  0.0000-1.00000  0.0000
CBEAM       2283       2    1010    1009  0.0000-1.00000  0.0000
CBEAM       2284       2    1009    1008  0.0000-1.00000  0.0000
CBEAM       2285       2    1008    1007  0.0000-1.00000  0.0000
CBEAM       2286       2    1007    1006  0.0000-1.00000  0.0000
CBEAM       2287       2    1006    1005  0.0000-1.00000  0.0000
CBEAM       2288       2    1005    1004  0.0000-1.00000  0.0000
CBEAM       2289       2    1004    1003  0.0000-1.00000  0.0000
CBEAM       2290       2    1003    1002  0.0000-1.00000  0.0000
CBEAM       2291       2    1002    1001  0.0000-1.00000  0.0000
CBEAM       2292       2    1001    1000  0.0000-1.00000  0.0000
CBEAM       2293       2    1000     999  0.0000-1.00000  0.0000
CBEAM       2294       2     999     998  0.0000-1.00000  0.0000
CBEAM       2295       2     998     997  0.0000-1.00000  0.0000
CBEAM       2296       2     997     996  0.0000-1.00000  0.0000
CBEAM       2297       2     996     995  0.0000-1.00000  0.0000
CBEAM       2298       2     995     994  0.0000-1.00000  0.0000
CBEAM       2299       2     994     993  0.0000-1.00000  0.0000
CBEAM       2300       2     993     992  0.0000-1.00000  0.0000
CBEAM       2301       2     992     991  0.0000-1.00000  0.0000
CBEAM       2302       2     991     990  0.0000-1.00000  0.0000
CBEAM       2303       2     990     989  0.0000-1.00000  0.0000
CBEAM       2304       2     989     988  0.0000-1.00000  0.0000
CBEAM       2305       2     988     987  0.0000-1.00000  0.0000
CBEAM       2306       2     987     986  0.0000-1.00000  0.0000
CBEAM       2307       2     986     985  0.0000-1.00000  0.0000
CBEAM       2308       2     985     984  0.0000-1.00000  0.0000
CBEAM       2309       2     984     983  0.0000-1.00000  0.0000
CBEAM       2310       2     983     982  0.0000-1.00000  0.0000
CBEAM       2311       2     982     981  0.0000-1.00000  0.0000
CBEAM       2312       2     981     980  0.0000-1.00000  0.0000
CBEAM       2313       2     980     979  0.0000-1.00000  0.0000
CBEAM       2314       2     979     978  0.0000-1.00000  0.0000
CBEAM       2315       2     978     977  0.0000-1.00000  0.0000
CBEAM       2316       2     977     976  0.0000-1.00000  0.0000
CBEAM       2317       2     976     975  0.0000-1.00000  0.0000
CBEAM       2318       2     975     974  0.0000-1.00000  0.0000
CBEAM       2319       2     974     973  0.0000-1.00000  0.0000
CBEAM       2320       2     973     972  0.0000-1.00000  0.0000
CBEAM       2321       2     972     971  0.0000-1.00000  0.0000
CBEAM       2322       2     971     970  0.0000-1.00000  0.0000
CBEAM       2323       2     970     969  0.0000-1.00000  0.0000
CBEAM       2324       2     969     968  0.0000-1.00000  0.0000
CBEAM       2325       2     968     967  0.0000-1.00000  0.0000
$*  Mesh Collector: Beam Collector(3)
$*  Mesh: 1d_mesh(3)
CBEAM       2326       3    3628    3627  0.00001.000000  0.0000
CBEAM       2327       3    3627    3626  0.00001.000000  0.0000
CBEAM       2328       3    3626    3625  0.00001.000000  0.0000
CBEAM       2329       3    3625    3624  0.00001.000000  0.0000
CBEAM       2330       3    3624    3623  0.00001.000000  0.0000
CBEAM       2331       3    3623    3622  0.00001.000000  0.0000
CBEAM       2332       3    3622    3621  0.00001.000000  0.0000
CBEAM       2333       3    3621    3620  0.00001.000000  0.0000
CBEAM       2334       3    3620    3619  0.00001.000000  0.0000
CBEAM       2335       3    3619    3618  0.00001.000000  0.0000
CBEAM       2336       3    3618    3617  0.00001.000000  0.0000
CBEAM       2337       3    3617    3616  0.00001.000000  0.0000
CBEAM       2338       3    3616    3615  0.00001.000000  0.0000
CBEAM       2339       3    3615    3614  0.00001.000000  0.0000
CBEAM       2340       3    3614    3613  0.00001.000000  0.0000
CBEAM       2341       3    3613    3612  0.00001.000000  0.0000
CBEAM       2342       3    3612    3611  0.00001.000000  0.0000
CBEAM       2343       3    3611    3610  0.00001.000000  0.0000
CBEAM       2344       3    3610    3609  0.00001.000000  0.0000
CBEAM       2345       3    3609    3608  0.00001.000000  0.0000
CBEAM       2346       3    3608    3607  0.00001.000000  0.0000
CBEAM       2347       3    3607    3606  0.00001.000000  0.0000
CBEAM       2348       3    3606    3605  0.00001.000000  0.0000
CBEAM       2349       3    3605    3604  0.00001.000000  0.0000
CBEAM       2350       3    3604    3603  0.00001.000000  0.0000
CBEAM       2351       3    3603    3602  0.00001.000000  0.0000
CBEAM       2352       3    3602    3601  0.00001.000000  0.0000
CBEAM       2353       3    3601    3600  0.00001.000000  0.0000
CBEAM       2354       3    3600    3599  0.00001.000000  0.0000
CBEAM       2355       3    3599    3598  0.00001.000000  0.0000
CBEAM       2356       3    3598    3597  0.00001.000000  0.0000
CBEAM       2357       3    3597    3596  0.00001.000000  0.0000
CBEAM       2358       3    3596    3595  0.00001.000000  0.0000
CBEAM       2359       3    3595    3594  0.00001.000000  0.0000
CBEAM       2360       3    3594    3593  0.00001.000000  0.0000
CBEAM       2361       3    3593    3592  0.00001.000000  0.0000
CBEAM       2362       3    3592    3591  0.00001.000000  0.0000
CBEAM       2363       3    3591    3590  0.00001.000000  0.0000
CBEAM       2364       3    3590    3589  0.00001.000000  0.0000
CBEAM       2365       3    3589    3588  0.00001.000000  0.0000
CBEAM       2366       3    3588    3587  0.00001.000000  0.0000
CBEAM       2367       3    3587    3586  0.00001.000000  0.0000
CBEAM       2368       3    3586    3585  0.00001.000000  0.0000
CBEAM       2369       3    3585    3584  0.00001.000000  0.0000
CBEAM       2370       3    3584    3583  0.00001.000000  0.0000
CBEAM       2371       3    3583    3582  0.00001.000000  0.0000
CBEAM       2372       3    3582    3581  0.00001.000000  0.0000
CBEAM       2373       3    3581    3580  0.00001.000000  0.0000
CBEAM       2374       3    3580    3579  0.00001.000000  0.0000
CBEAM       2375       3    3579    3578  0.00001.000000  0.0000
CBEAM       2376       3    3578    3577  0.00001.000000  0.0000
CBEAM       2377       3    3577    3576  0.00001.000000  0.0000
CBEAM       2378       3    3576    3575  0.00001.000000  0.0000
CBEAM       2379       3    3575    3574  0.00001.000000  0.0000
CBEAM       2380       3    3574    3573  0.00001.000000  0.0000
CBEAM       2381       3    3573    3572  0.00001.000000  0.0000
CBEAM       2382       3    3572    3571  0.00001.000000  0.0000
CBEAM       2383       3    3571    3570  0.00001.000000  0.0000
CBEAM       2384       3    3570    3569  0.00001.000000  0.0000
CBEAM       2385       3    3569    3568  0.00001.000000  0.0000
CBEAM       2386       3    3568    3567  0.00001.000000  0.0000
CBEAM       2387       3    3567    3566  0.00001.000000  0.0000
CBEAM       2388       3    3566    3565  0.00001.000000  0.0000
CBEAM       2389       3    3565    3564  0.00001.000000  0.0000
CBEAM       2390       3    3564    3563  0.00001.000000  0.0000
CBEAM       2391       3    3563    3562  0.00001.000000  0.0000
CBEAM       2392       3    3562    3561  0.00001.000000  0.0000
CBEAM       2393       3    3561    3560  0.00001.000000  0.0000
CBEAM       2394       3    3560    3559  0.00001.000000  0.0000
CBEAM       2395       3    3559    3558  0.00001.000000  0.0000
CBEAM       2396       3    3558    3557  0.00001.000000  0.0000
CBEAM       2397       3    3557    3556  0.00001.000000  0.0000
CBEAM       2398       3    3556    3555  0.00001.000000  0.0000
CBEAM       2399       3    3555    3554  0.00001.000000  0.0000
CBEAM       2400       3    3554    3553  0.00001.000000  0.0000
CBEAM       2401       3    3553    3552  0.00001.000000  0.0000
CBEAM       2402       3    3552    3551  0.00001.000000  0.0000
CBEAM       2403       3    3551    3550  0.00001.000000  0.0000
CBEAM       2404       3    3550    3549  0.00001.000000  0.0000
CBEAM       2405       3    3549    3548  0.00001.000000  0.0000
CBEAM       2406       3    3548    3547  0.00001.000000  0.0000
CBEAM       2407       3    3547    3546  0.00001.000000  0.0000
CBEAM       2408       3    3546    3545  0.00001.000000  0.0000
CBEAM       2409       3    3545    3544  0.00001.000000  0.0000
CBEAM       2410       3    3544    3543  0.00001.000000  0.0000
CBEAM       2411       3    3543    3542  0.00001.000000  0.0000
CBEAM       2412       3    3542    3541  0.00001.000000  0.0000
CBEAM       2413       3    3541    3540  0.00001.000000  0.0000
CBEAM       2414       3    3540    3539  0.00001.000000  0.0000
CBEAM       2415       3    3539    3538  0.00001.000000  0.0000
CBEAM       2416       3    3538    3537  0.00001.000000  0.0000
CBEAM       2417       3    3537    3536  0.00001.000000  0.0000
CBEAM       2418       3    3536    3535  0.00001.000000  0.0000
CBEAM       2419       3    3535    3534  0.00001.000000  0.0000
CBEAM       2420       3    3534    3533  0.00001.000000  0.0000
CBEAM       2421       3    3533    3532  0.00001.000000  0.0000
CBEAM       2422       3    3532    3531  0.00001.000000  0.0000
CBEAM       2423       3    3531    3530  0.00001.000000  0.0000
CBEAM       2424       3    3530    3529  0.00001.000000  0.0000
CBEAM       2425       3    3529    3528  0.00001.000000  0.0000
CBEAM       2426       3    3528    3527  0.00001.000000  0.0000
CBEAM       2427       3    3527    3526  0.00001.000000  0.0000
CBEAM       2428       3    3526    3525  0.00001.000000  0.0000
CBEAM       2429       3    3525    3524  0.00001.000000  0.0000
CBEAM       2430       3    3524    3523  0.00001.000000  0.0000
CBEAM       2431       3    3523    3522  0.00001.000000  0.0000
CBEAM       2432       3    3522    3521  0.00001.000000  0.0000
CBEAM       2433       3    3521    3520  0.00001.000000  0.0000
CBEAM       2434       3    3520    3519  0.00001.000000  0.0000
CBEAM       2435       3    3519    3518  0.00001.000000  0.0000
CBEAM       2436       3    3518    3517  0.00001.000000  0.0000
CBEAM       2437       3    3517    3516  0.00001.000000  0.0000
CBEAM       2438       3    3516    3515  0.00001.000000  0.0000
CBEAM       2439       3    3515    3514  0.00001.000000  0.0000
CBEAM       2440       3    3514    3513  0.00001.000000  0.0000
CBEAM       2441       3    3513    3512  0.00001.000000  0.0000
CBEAM       2442       3    3512    3511  0.00001.000000  0.0000
CBEAM       2443       3    3511    3510  0.00001.000000  0.0000
CBEAM       2444       3    3510    3509  0.00001.000000  0.0000
CBEAM       2445       3    3509    3508  0.00001.000000  0.0000
CBEAM       2446       3    3508    3507  0.00001.000000  0.0000
CBEAM       2447       3    3507    3506  0.00001.000000  0.0000
CBEAM       2448       3    3506    3505  0.00001.000000  0.0000
CBEAM       2449       3    3505    3504  0.00001.000000  0.0000
CBEAM       2450       3    3504    3503  0.00001.000000  0.0000
CBEAM       2451       3    3503    3502  0.00001.000000  0.0000
CBEAM       2452       3    3502    3501  0.00001.000000  0.0000
CBEAM       2453       3    3501    3500  0.00001.000000  0.0000
CBEAM       2454       3    3500    3499  0.00001.000000  0.0000
CBEAM       2455       3    3499    3498  0.00001.000000  0.0000
CBEAM       2456       3    3498    3497  0.00001.000000  0.0000
CBEAM       2457       3    3497    3496  0.00001.000000  0.0000
CBEAM       2458       3    3496    3495  0.00001.000000  0.0000
CBEAM       2459       3    3495    3494  0.00001.000000  0.0000
CBEAM       2460       3    3494    3493  0.00001.000000  0.0000
CBEAM       2461       3    3493    3492  0.00001.000000  0.0000
CBEAM       2462       3    3492    3491  0.00001.000000  0.0000
CBEAM       2463       3    3491    3490  0.00001.000000  0.0000
CBEAM       2464       3    3490    3489  0.00001.000000  0.0000
CBEAM       2465       3    3489    3488  0.00001.000000  0.0000
CBEAM       2466       3    3488    3487  0.00001.000000  0.0000
CBEAM       2467       3    3487    3486  0.00001.000000  0.0000
CBEAM       2468       3    3486    3485  0.00001.000000  0.0000
CBEAM       2469       3    3485    3484  0.00001.000000  0.0000
CBEAM       2470       3    3484    3483  0.00001.000000  0.0000
CBEAM       2471       3    3483    3482  0.00001.000000  0.0000
CBEAM       2472       3    3482    3481  0.00001.000000  0.0000
CBEAM       2473       3    3481    3480  0.00001.000000  0.0000
CBEAM       2474       3    3480    3479  0.00001.000000  0.0000
CBEAM       2475       3    3479    3478  0.00001.000000  0.0000
CBEAM       2476       3    3478    3477  0.00001.000000  0.0000
CBEAM       2477       3    3477    3476  0.00001.000000  0.0000
CBEAM       2478       3    3476    3475  0.00001.000000  0.0000
CBEAM       2479       3    3475    3474  0.00001.000000  0.0000
CBEAM       2480       3    3474    3473  0.00001.000000  0.0000
CBEAM       2481       3    3473    3472  0.00001.000000  0.0000
CBEAM       2482       3    3472    3471  0.00001.000000  0.0000
CBEAM       2483       3    3471    3470  0.00001.000000  0.0000
CBEAM       2484       3    3470    3469  0.00001.000000  0.0000
CBEAM       2485       3    3469    3468  0.00001.000000  0.0000
CBEAM       2486       3    3468    3467  0.00001.000000  0.0000
CBEAM       2487       3    3467    3466  0.00001.000000  0.0000
CBEAM       2488       3    3466    3465  0.00001.000000  0.0000
CBEAM       2489       3    3465    3464  0.00001.000000  0.0000
CBEAM       2490       3    3464    3463  0.00001.000000  0.0000
CBEAM       2491       3    3463    3462  0.00001.000000  0.0000
CBEAM       2492       3    3462    3461  0.00001.000000  0.0000
CBEAM       2493       3    3461    3460  0.00001.000000  0.0000
CBEAM       2494       3    3460    3459  0.00001.000000  0.0000
CBEAM       2495       3    3459    3458  0.00001.000000  0.0000
CBEAM       2496       3    3458    3457  0.00001.000000  0.0000
CBEAM       2497       3    3457    3456  0.00001.000000  0.0000
CBEAM       2498       3    3456    3455  0.00001.000000  0.0000
CBEAM       2499       3    3455    3454  0.00001.000000  0.0000
CBEAM       2500       3    3454    3453  0.00001.000000  0.0000
CBEAM       2501       3    3453    3452  0.00001.000000  0.0000
CBEAM       2502       3    3452    3451  0.00001.000000  0.0000
CBEAM       2503       3    3451    3450  0.00001.000000  0.0000
CBEAM       2504       3    3450    3449  0.00001.000000  0.0000
CBEAM       2505       3    3449    3448  0.00001.000000  0.0000
CBEAM       2506       3    3448    3447  0.00001.000000  0.0000
CBEAM       2507       3    3447    3446  0.00001.000000  0.0000
CBEAM       2508       3    3446    3445  0.00001.000000  0.0000
CBEAM       2509       3    3445    3444  0.00001.000000  0.0000
CBEAM       2510       3    3444    3443  0.00001.000000  0.0000
CBEAM       2511       3    3443    3442  0.00001.000000  0.0000
CBEAM       2512       3    3442    3441  0.00001.000000  0.0000
CBEAM       2513       3    3441    3440  0.00001.000000  0.0000
CBEAM       2514       3    3440    3439  0.00001.000000  0.0000
CBEAM       2515       3    3439    3438  0.00001.000000  0.0000
CBEAM       2516       3    3438    3437  0.00001.000000  0.0000
CBEAM       2517       3    3437    3436  0.00001.000000  0.0000
CBEAM       2518       3    3436    3435  0.00001.000000  0.0000
CBEAM       2519       3    3435    3434  0.00001.000000  0.0000
CBEAM       2520       3    3434    3433  0.00001.000000  0.0000
CBEAM       2521       3    3433    3432  0.00001.000000  0.0000
CBEAM       2522       3    3432    3431  0.00001.000000  0.0000
CBEAM       2523       3    3431    3430  0.00001.000000  0.0000
CBEAM       2524       3    3430    3429  0.00001.000000  0.0000
CBEAM       2525       3    3429    3428  0.00001.000000  0.0000
CBEAM       2526       3    3428    3427  0.00001.000000  0.0000
CBEAM       2527       3    3427    3426  0.00001.000000  0.0000
CBEAM       2528       3    3426    3425  0.00001.000000  0.0000
CBEAM       2529       3    3425    3424  0.00001.000000  0.0000
CBEAM       2530       3    3424    3423  0.00001.000000  0.0000
CBEAM       2531       3    3423    3422  0.00001.000000  0.0000
CBEAM       2532       3    3422    3421  0.00001.000000  0.0000
CBEAM       2533       3    3421    3420  0.00001.000000  0.0000
CBEAM       2534       3    3420    3419  0.00001.000000  0.0000
CBEAM       2535       3    3419    3418  0.00001.000000  0.0000
CBEAM       2536       3    3418    3417  0.00001.000000  0.0000
CBEAM       2537       3    3417    3416  0.00001.000000  0.0000
CBEAM       2538       3    3416    3415  0.00001.000000  0.0000
CBEAM       2539       3    3415    3414  0.00001.000000  0.0000
CBEAM       2540       3    3414    3413  0.00001.000000  0.0000
CBEAM       2541       3    3413    3412  0.00001.000000  0.0000
CBEAM       2542       3    3412    3411  0.00001.000000  0.0000
CBEAM       2543       3    3411    3410  0.00001.000000  0.0000
CBEAM       2544       3    3410    3409  0.00001.000000  0.0000
CBEAM       2545       3    3409    3408  0.00001.000000  0.0000
CBEAM       2546       3    3408    3407  0.00001.000000  0.0000
CBEAM       2547       3    3407    3406  0.00001.000000  0.0000
CBEAM       2548       3    3406    3405  0.00001.000000  0.0000
CBEAM       2549       3    3405    3404  0.00001.000000  0.0000
CBEAM       2550       3    3404    3403  0.00001.000000  0.0000
CBEAM       2551       3    3403    3402  0.00001.000000  0.0000
CBEAM       2552       3    3402    3401  0.00001.000000  0.0000
CBEAM       2553       3    3401    3400  0.00001.000000  0.0000
CBEAM       2554       3    3400    3399  0.00001.000000  0.0000
CBEAM       2555       3    3399    3398  0.00001.000000  0.0000
CBEAM       2556       3    3398    3397  0.00001.000000  0.0000
CBEAM       2557       3    3397    3396  0.00001.000000  0.0000
CBEAM       2558       3    3396    3395  0.00001.000000  0.0000
CBEAM       2559       3    3395    3394  0.00001.000000  0.0000
CBEAM       2560       3    3394    3393  0.00001.000000  0.0000
CBEAM       2561       3    3393    3392  0.00001.000000  0.0000
CBEAM       2562       3    3392    3391  0.00001.000000  0.0000
CBEAM       2563       3    3391    3390  0.00001.000000  0.0000
CBEAM       2564       3    3390    3389  0.00001.000000  0.0000
CBEAM       2565       3    3389    3388  0.00001.000000  0.0000
CBEAM       2566       3    3388    3387  0.00001.000000  0.0000
CBEAM       2567       3    3387    3386  0.00001.000000  0.0000
CBEAM       2568       3    3386    3385  0.00001.000000  0.0000
CBEAM       2569       3    3385    3384  0.00001.000000  0.0000
CBEAM       2570       3    3384    3383  0.00001.000000  0.0000
CBEAM       2571       3    3383    3382  0.00001.000000  0.0000
CBEAM       2572       3    3382    3381  0.00001.000000  0.0000
CBEAM       2573       3    3381    3380  0.00001.000000  0.0000
CBEAM       2574       3    3380    3379  0.00001.000000  0.0000
CBEAM       2575       3    3379    3378  0.00001.000000  0.0000
CBEAM       2576       3    3378    3377  0.00001.000000  0.0000
CBEAM       2577       3    3377    3376  0.00001.000000  0.0000
CBEAM       2578       3    3376    3375  0.00001.000000  0.0000
CBEAM       2579       3    3375    3374  0.00001.000000  0.0000
CBEAM       2580       3    3374    3373  0.00001.000000  0.0000
CBEAM       2581       3    3373    3372  0.00001.000000  0.0000
CBEAM       2582       3    3372    3371  0.00001.000000  0.0000
CBEAM       2583       3    3371    3370  0.00001.000000  0.0000
CBEAM       2584       3    3370    3369  0.00001.000000  0.0000
CBEAM       2585       3    3369    3368  0.00001.000000  0.0000
CBEAM       2586       3    3368    3367  0.00001.000000  0.0000
CBEAM       2587       3    3367    3366  0.00001.000000  0.0000
CBEAM       2588       3    3366    3365  0.00001.000000  0.0000
CBEAM       2589       3    3365    3364  0.00001.000000  0.0000
CBEAM       2590       3    3364    3363  0.00001.000000  0.0000
CBEAM       2591       3    3363    3362  0.00001.000000  0.0000
CBEAM       2592       3    3362    3361  0.00001.000000  0.0000
CBEAM       2593       3    3361    3360  0.00001.000000  0.0000
CBEAM       2594       3    3360    3359  0.00001.000000  0.0000
CBEAM       2595       3    3359    3358  0.00001.000000  0.0000
CBEAM       2596       3    3358    3357  0.00001.000000  0.0000
CBEAM       2597       3    3357    3356  0.00001.000000  0.0000
CBEAM       2598       3    3356    3355  0.00001.000000  0.0000
CBEAM       2599       3    3355    3354  0.00001.000000  0.0000
CBEAM       2600       3    3354    3353  0.00001.000000  0.0000
CBEAM       2601       3    3353    3352  0.00001.000000  0.0000
CBEAM       2602       3    3352    3351  0.00001.000000  0.0000
CBEAM       2603       3    3351    3350  0.00001.000000  0.0000
CBEAM       2604       3    3350    3349  0.00001.000000  0.0000
CBEAM       2605       3    3349    3348  0.00001.000000  0.0000
CBEAM       2606       3    3348    3347  0.00001.000000  0.0000
CBEAM       2607       3    3347    3346  0.00001.000000  0.0000
CBEAM       2608       3    3346    3345  0.00001.000000  0.0000
CBEAM       2609       3    3345    3344  0.00001.000000  0.0000
CBEAM       2610       3    3344    3343  0.00001.000000  0.0000
CBEAM       2611       3    3343    3342  0.00001.000000  0.0000
CBEAM       2612       3    3342    3341  0.00001.000000  0.0000
CBEAM       2613       3    3341    3340  0.00001.000000  0.0000
CBEAM       2614       3    3340    3339  0.00001.000000  0.0000
CBEAM       2615       3    3339    3338  0.00001.000000  0.0000
CBEAM       2616       3    3338    3337  0.00001.000000  0.0000
CBEAM       2617       3    3337    3336  0.00001.000000  0.0000
CBEAM       2618       3    3336    3335  0.00001.000000  0.0000
CBEAM       2619       3    3335    3334  0.00001.000000  0.0000
CBEAM       2620       3    3334    3333  0.00001.000000  0.0000
CBEAM       2621       3    3333    3332  0.00001.000000  0.0000
CBEAM       2622       3    3332    3331  0.00001.000000  0.0000
CBEAM       2623       3    3331    3330  0.00001.000000  0.0000
CBEAM       2624       3    3330    3329  0.00001.000000  0.0000
CBEAM       2625       3    3329    3328  0.00001.000000  0.0000
CBEAM       2626       3    3328    3327  0.00001.000000  0.0000
CBEAM       2627       3    3327    3326  0.00001.000000  0.0000
CBEAM       2628       3    3326    3325  0.00001.000000  0.0000
CBEAM       2629       3    3325    3324  0.00001.000000  0.0000
CBEAM       2630       3    3324    3323  0.00001.000000  0.0000
CBEAM       2631       3    3323    3322  0.00001.000000  0.0000
CBEAM       2632       3    3322    3321  0.00001.000000  0.0000
CBEAM       2633       3    3321    3320  0.00001.000000  0.0000
CBEAM       2634       3    3320    3319  0.00001.000000  0.0000
CBEAM       2635       3    3319    3318  0.00001.000000  0.0000
CBEAM       2636       3    3318    3317  0.00001.000000  0.0000
CBEAM       2637       3    3317    3316  0.00001.000000  0.0000
CBEAM       2638       3    3316    3315  0.00001.000000  0.0000
CBEAM       2639       3    3315    3314  0.00001.000000  0.0000
CBEAM       2640       3    3314    3313  0.00001.000000  0.0000
CBEAM       2641       3    3313    3312  0.00001.000000  0.0000
CBEAM       2642       3    3312    3311  0.00001.000000  0.0000
CBEAM       2643       3    3311    3310  0.00001.000000  0.0000
CBEAM       2644       3    3310    3309  0.00001.000000  0.0000
CBEAM       2645       3    3309    3308  0.00001.000000  0.0000
CBEAM       2646       3    3308    3307  0.00001.000000  0.0000
CBEAM       2647       3    3307    3306  0.00001.000000  0.0000
CBEAM       2648       3    3306    3305  0.00001.000000  0.0000
CBEAM       2649       3    3305    3304  0.00001.000000  0.0000
CBEAM       2650       3    3304    3303  0.00001.000000  0.0000
CBEAM       2651       3    3303    3302  0.00001.000000  0.0000
CBEAM       2652       3    3302    3301  0.00001.000000  0.0000
CBEAM       2653       3    3301    3300  0.00001.000000  0.0000
CBEAM       2654       3    3300    3299  0.00001.000000  0.0000
CBEAM       2655       3    3299    3298  0.00001.000000  0.0000
CBEAM       2656       3    3298    3297  0.00001.000000  0.0000
CBEAM       2657       3    3297    3296  0.00001.000000  0.0000
CBEAM       2658       3    3296    3295  0.00001.000000  0.0000
CBEAM       2659       3    3295    3294  0.00001.000000  0.0000
CBEAM       2660       3    3294    3293  0.00001.000000  0.0000
CBEAM       2661       3    3293    3292  0.00001.000000  0.0000
CBEAM       2662       3    3292    3291  0.00001.000000  0.0000
CBEAM       2663       3    3291    3290  0.00001.000000  0.0000
CBEAM       2664       3    3290    3289  0.00001.000000  0.0000
CBEAM       2665       3    3289    3288  0.00001.000000  0.0000
CBEAM       2666       3    3288    3287  0.00001.000000  0.0000
CBEAM       2667       3    3287    3286  0.00001.000000  0.0000
CBEAM       2668       3    3286    3285  0.00001.000000  0.0000
CBEAM       2669       3    3285    3284  0.00001.000000  0.0000
CBEAM       2670       3    3284    3283  0.00001.000000  0.0000
CBEAM       2671       3    3283    3282  0.00001.000000  0.0000
CBEAM       2672       3    3282    3281  0.00001.000000  0.0000
CBEAM       2673       3    3281    3280  0.00001.000000  0.0000
CBEAM       2674       3    3280    3279  0.00001.000000  0.0000
CBEAM       2675       3    3279    3278  0.00001.000000  0.0000
CBEAM       2676       3    3278    3277  0.00001.000000  0.0000
CBEAM       2677       3    3277    3276  0.00001.000000  0.0000
CBEAM       2678       3    3276    3275  0.00001.000000  0.0000
CBEAM       2679       3    3275    3274  0.00001.000000  0.0000
CBEAM       2680       3    3274    3273  0.00001.000000  0.0000
CBEAM       2681       3    3273    3272  0.00001.000000  0.0000
CBEAM       2682       3    3272    3271  0.00001.000000  0.0000
CBEAM       2683       3    3271    3270  0.00001.000000  0.0000
CBEAM       2684       3    3270    3269  0.00001.000000  0.0000
CBEAM       2685       3    3269    3268  0.00001.000000  0.0000
CBEAM       2686       3    3268    3267  0.00001.000000  0.0000
CBEAM       2687       3    3267    3266  0.00001.000000  0.0000
CBEAM       2688       3    3266    3265  0.00001.000000  0.0000
CBEAM       2689       3    3265    3264  0.00001.000000  0.0000
CBEAM       2690       3    3264    3263  0.00001.000000  0.0000
CBEAM       2691       3    3263    3262  0.00001.000000  0.0000
CBEAM       2692       3    3262    3261  0.00001.000000  0.0000
CBEAM       2693       3    3261    3260  0.00001.000000  0.0000
CBEAM       2694       3    3260    3259  0.00001.000000  0.0000
CBEAM       2695       3    3259    3258  0.00001.000000  0.0000
CBEAM       2696       3    3258    3257  0.00001.000000  0.0000
CBEAM       2697       3    3257    3256  0.00001.000000  0.0000
CBEAM       2698       3    3256    3255  0.00001.000000  0.0000
CBEAM       2699       3    3255    3254  0.00001.000000  0.0000
CBEAM       2700       3    3254    3253  0.00001.000000  0.0000
CBEAM       2701       3    3253    3252  0.00001.000000  0.0000
CBEAM       2702       3    3252    3251  0.00001.000000  0.0000
CBEAM       2703       3    3251    3250  0.00001.000000  0.0000
CBEAM       2704       3    3250    3249  0.00001.000000  0.0000
CBEAM       2705       3    3249    3248  0.00001.000000  0.0000
CBEAM       2706       3    3248    3247  0.00001.000000  0.0000
CBEAM       2707       3    3247    3246  0.00001.000000  0.0000
CBEAM       2708       3    3246    3245  0.00001.000000  0.0000
CBEAM       2709       3    3245    3244  0.00001.000000  0.0000
CBEAM       2710       3    3244    3243  0.00001.000000  0.0000
CBEAM       2711       3    3243    3242  0.00001.000000  0.0000
CBEAM       2712       3    3242    3241  0.00001.000000  0.0000
CBEAM       2713       3    3241    3240  0.00001.000000  0.0000
CBEAM       2714       3    3240    3239  0.00001.000000  0.0000
CBEAM       2715       3    3239    3238  0.00001.000000  0.0000
CBEAM       2716       3    3238    3237  0.00001.000000  0.0000
CBEAM       2717       3    3237    3236  0.00001.000000  0.0000
CBEAM       2718       3    3236    3235  0.00001.000000  0.0000
CBEAM       2719       3    3235    3234  0.00001.000000  0.0000
CBEAM       2720       3    3234    3233  0.00001.000000  0.0000
CBEAM       2721       3    3233    3232  0.00001.000000  0.0000
CBEAM       2722       3    3232    3231  0.00001.000000  0.0000
CBEAM       2723       3    3231    3230  0.00001.000000  0.0000
CBEAM       2724       3    3230    3229  0.00001.000000  0.0000
CBEAM       2725       3    3229    3228  0.00001.000000  0.0000
CBEAM       2726       3    3228    3227  0.00001.000000  0.0000
CBEAM       2727       3    3227    3226  0.00001.000000  0.0000
CBEAM       2728       3    3226    3225  0.00001.000000  0.0000
CBEAM       2729       3    3225    3224  0.00001.000000  0.0000
CBEAM       2730       3    3224    3223  0.00001.000000  0.0000
CBEAM       2731       3    3223    3222  0.00001.000000  0.0000
CBEAM       2732       3    3222    3221  0.00001.000000  0.0000
CBEAM       2733       3    3221    3220  0.00001.000000  0.0000
CBEAM       2734       3    3220    3219  0.00001.000000  0.0000
CBEAM       2735       3    3219    3218  0.00001.000000  0.0000
CBEAM       2736       3    3218    3217  0.00001.000000  0.0000
CBEAM       2737       3    3217    3216  0.00001.000000  0.0000
CBEAM       2738       3    3216    3215  0.00001.000000  0.0000
CBEAM       2739       3    3215    3214  0.00001.000000  0.0000
CBEAM       2740       3    3214    3213  0.00001.000000  0.0000
CBEAM       2741       3    3213    3212  0.00001.000000  0.0000
CBEAM       2742       3    3212    3211  0.00001.000000  0.0000
CBEAM       2743       3    3211    3210  0.00001.000000  0.0000
CBEAM       2744       3    3210    3209  0.00001.000000  0.0000
CBEAM       2745       3    3209    3208  0.00001.000000  0.0000
CBEAM       2746       3    3208    3207  0.00001.000000  0.0000
CBEAM       2747       3    3207    3206  0.00001.000000  0.0000
CBEAM       2748       3    3206    3205  0.00001.000000  0.0000
CBEAM       2749       3    3205    3204  0.00001.000000  0.0000
CBEAM       2750       3    3204    3203  0.00001.000000  0.0000
CBEAM       2751       3    3203    3202  0.00001.000000  0.0000
CBEAM       2752       3    3202    3201  0.00001.000000  0.0000
CBEAM       2753       3    3201    3200  0.00001.000000  0.0000
CBEAM       2754       3    3200    3199  0.00001.000000  0.0000
CBEAM       2755       3    3199    3198  0.00001.000000  0.0000
CBEAM       2756       3    3198    3197  0.00001.000000  0.0000
CBEAM       2757       3    3197    3196  0.00001.000000  0.0000
CBEAM       2758       3    3196    3195  0.00001.000000  0.0000
CBEAM       2759       3    3195    3194  0.00001.000000  0.0000
CBEAM       2760       3    3194    3193  0.00001.000000  0.0000
CBEAM       2761       3    3193    3192  0.00001.000000  0.0000
CBEAM       2762       3    3192    3191  0.00001.000000  0.0000
CBEAM       2763       3    3191    3190  0.00001.000000  0.0000
CBEAM       2764       3    3190    3189  0.00001.000000  0.0000
CBEAM       2765       3    3189    3188  0.00001.000000  0.0000
CBEAM       2766       3    3188    3187  0.00001.000000  0.0000
CBEAM       2767       3    3187    3186  0.00001.000000  0.0000
CBEAM       2768       3    3186    3185  0.00001.000000  0.0000
CBEAM       2769       3    3185    3184  0.00001.000000  0.0000
CBEAM       2770       3    3184    3183  0.00001.000000  0.0000
CBEAM       2771       3    3183    3182  0.00001.000000  0.0000
CBEAM       2772       3    3182    3181  0.00001.000000  0.0000
CBEAM       2773       3    3181    3180  0.00001.000000  0.0000
CBEAM       2774       3    3180    3179  0.00001.000000  0.0000
CBEAM       2775       3    3179    3178  0.00001.000000  0.0000
CBEAM       2776       3    3178    3177  0.00001.000000  0.0000
CBEAM       2777       3    3177    3176  0.00001.000000  0.0000
CBEAM       2778       3    3176    3175  0.00001.000000  0.0000
CBEAM       2779       3    3175    3174  0.00001.000000  0.0000
CBEAM       2780       3    3174    3173  0.00001.000000  0.0000
CBEAM       2781       3    3173    3172  0.00001.000000  0.0000
CBEAM       2782       3    3172    3171  0.00001.000000  0.0000
CBEAM       2783       3    3171    3170  0.00001.000000  0.0000
CBEAM       2784       3    3170    3169  0.00001.000000  0.0000
CBEAM       2785       3    3169    3168  0.00001.000000  0.0000
CBEAM       2786       3    3168    3167  0.00001.000000  0.0000
CBEAM       2787       3    3167    3166  0.00001.000000  0.0000
CBEAM       2788       3    3166    3165  0.00001.000000  0.0000
CBEAM       2789       3    3165    3164  0.00001.000000  0.0000
CBEAM       2790       3    3164    3163  0.00001.000000  0.0000
CBEAM       2791       3    3163    3162  0.00001.000000  0.0000
CBEAM       2792       3    3162    3161  0.00001.000000  0.0000
CBEAM       2793       3    3161    3160  0.00001.000000  0.0000
CBEAM       2794       3    3160    3159  0.00001.000000  0.0000
CBEAM       2795       3    3159    3158  0.00001.000000  0.0000
CBEAM       2796       3    3158    3157  0.00001.000000  0.0000
CBEAM       2797       3    3157    3156  0.00001.000000  0.0000
CBEAM       2798       3    3156    3155  0.00001.000000  0.0000
CBEAM       2799       3    3155    3154  0.00001.000000  0.0000
CBEAM       2800       3    3154    3153  0.00001.000000  0.0000
CBEAM       2801       3    3153    3152  0.00001.000000  0.0000
CBEAM       2802       3    3152    3151  0.00001.000000  0.0000
CBEAM       2803       3    3151    3150  0.00001.000000  0.0000
CBEAM       2804       3    3150    3149  0.00001.000000  0.0000
CBEAM       2805       3    3149    3148  0.00001.000000  0.0000
CBEAM       2806       3    3148    3147  0.00001.000000  0.0000
CBEAM       2807       3    3147    3146  0.00001.000000  0.0000
CBEAM       2808       3    3146    3145  0.00001.000000  0.0000
CBEAM       2809       3    3145    3144  0.00001.000000  0.0000
CBEAM       2810       3    3144    3143  0.00001.000000  0.0000
CBEAM       2811       3    3143    3142  0.00001.000000  0.0000
CBEAM       2812       3    3142    3141  0.00001.000000  0.0000
CBEAM       2813       3    3141    3140  0.00001.000000  0.0000
CBEAM       2814       3    3140    3139  0.00001.000000  0.0000
CBEAM       2815       3    3139    3138  0.00001.000000  0.0000
CBEAM       2816       3    3138    3137  0.00001.000000  0.0000
CBEAM       2817       3    3137    3136  0.00001.000000  0.0000
CBEAM       2818       3    3136    3135  0.00001.000000  0.0000
CBEAM       2819       3    3135    3134  0.00001.000000  0.0000
CBEAM       2820       3    3134    3133  0.00001.000000  0.0000
CBEAM       2821       3    3133    3132  0.00001.000000  0.0000
CBEAM       2822       3    3132    3131  0.00001.000000  0.0000
CBEAM       2823       3    3131    3130  0.00001.000000  0.0000
CBEAM       2824       3    3130    3129  0.00001.000000  0.0000
CBEAM       2825       3    3129    3128  0.00001.000000  0.0000
CBEAM       2826       3    3128    3127  0.00001.000000  0.0000
CBEAM       2827       3    3127    3126  0.00001.000000  0.0000
CBEAM       2828       3    3126    3125  0.00001.000000  0.0000
CBEAM       2829       3    3125    3124  0.00001.000000  0.0000
CBEAM       2830       3    3124    3123  0.00001.000000  0.0000
CBEAM       2831       3    3123    3122  0.00001.000000  0.0000
CBEAM       2832       3    3122    3121  0.00001.000000  0.0000
CBEAM       2833       3    3121    3120  0.00001.000000  0.0000
CBEAM       2834       3    3120    3119  0.00001.000000  0.0000
CBEAM       2835       3    3119    3118  0.00001.000000  0.0000
CBEAM       2836       3    3118    3117  0.00001.000000  0.0000
CBEAM       2837       3    3117    3116  0.00001.000000  0.0000
CBEAM       2838       3    3116    3115  0.00001.000000  0.0000
CBEAM       2839       3    3115    3114  0.00001.000000  0.0000
CBEAM       2840       3    3114    3113  0.00001.000000  0.0000
CBEAM       2841       3    3113    3112  0.00001.000000  0.0000
CBEAM       2842       3    3112    3111  0.00001.000000  0.0000
CBEAM       2843       3    3111    3110  0.00001.000000  0.0000
CBEAM       2844       3    3110    3109  0.00001.000000  0.0000
CBEAM       2845       3    3109    3108  0.00001.000000  0.0000
CBEAM       2846       3    3108    3107  0.00001.000000  0.0000
CBEAM       2847       3    3107    3106  0.00001.000000  0.0000
CBEAM       2848       3    3106    3105  0.00001.000000  0.0000
CBEAM       2849       3    3105    3104  0.00001.000000  0.0000
CBEAM       2850       3    3104    3103  0.00001.000000  0.0000
CBEAM       2851       3    3103    3102  0.00001.000000  0.0000
CBEAM       2852       3    3102    3101  0.00001.000000  0.0000
CBEAM       2853       3    3101    3100  0.00001.000000  0.0000
CBEAM       2854       3    3100    3099  0.00001.000000  0.0000
CBEAM       2855       3    3099    3098  0.00001.000000  0.0000
CBEAM       2856       3    3098    3097  0.00001.000000  0.0000
CBEAM       2857       3    3097    3096  0.00001.000000  0.0000
CBEAM       2858       3    3096    3095  0.00001.000000  0.0000
CBEAM       2859       3    3095    3094  0.00001.000000  0.0000
CBEAM       2860       3    3094    3093  0.00001.000000  0.0000
CBEAM       2861       3    3093    3092  0.00001.000000  0.0000
CBEAM       2862       3    3092    3091  0.00001.000000  0.0000
CBEAM       2863       3    3091    3090  0.00001.000000  0.0000
CBEAM       2864       3    3090    3089  0.00001.000000  0.0000
CBEAM       2865       3    3089    3088  0.00001.000000  0.0000
CBEAM       2866       3    3088    3087  0.00001.000000  0.0000
CBEAM       2867       3    3087    3086  0.00001.000000  0.0000
CBEAM       2868       3    3086    3085  0.00001.000000  0.0000
CBEAM       2869       3    3085    3084  0.00001.000000  0.0000
CBEAM       2870       3    3084    3083  0.00001.000000  0.0000
CBEAM       2871       3    3083    3082  0.00001.000000  0.0000
CBEAM       2872       3    3082    3081  0.00001.000000  0.0000
CBEAM       2873       3    3081    3080  0.00001.000000  0.0000
CBEAM       2874       3    3080    3079  0.00001.000000  0.0000
CBEAM       2875       3    3079    3078  0.00001.000000  0.0000
CBEAM       2876       3    3078    3077  0.00001.000000  0.0000
CBEAM       2877       3    3077    3076  0.00001.000000  0.0000
CBEAM       2878       3    3076    3075  0.00001.000000  0.0000
CBEAM       2879       3    3075    3074  0.00001.000000  0.0000
CBEAM       2880       3    3074    3073  0.00001.000000  0.0000
CBEAM       2881       3    3073    3072  0.00001.000000  0.0000
CBEAM       2882       3    3072    3071  0.00001.000000  0.0000
CBEAM       2883       3    3071    3070  0.00001.000000  0.0000
CBEAM       2884       3    3070    3069  0.00001.000000  0.0000
CBEAM       2885       3    3069    3068  0.00001.000000  0.0000
CBEAM       2886       3    3068    3067  0.00001.000000  0.0000
CBEAM       2887       3    3067    3066  0.00001.000000  0.0000
CBEAM       2888       3    3066    3065  0.00001.000000  0.0000
CBEAM       2889       3    3065    3064  0.00001.000000  0.0000
CBEAM       2890       3    3064    3063  0.00001.000000  0.0000
CBEAM       2891       3    3063    3062  0.00001.000000  0.0000
CBEAM       2892       3    3062    3061  0.00001.000000  0.0000
CBEAM       2893       3    3061    3060  0.00001.000000  0.0000
CBEAM       2894       3    3060    3059  0.00001.000000  0.0000
CBEAM       2895       3    3059    3058  0.00001.000000  0.0000
CBEAM       2896       3    3058    3057  0.00001.000000  0.0000
CBEAM       2897       3    3057    3056  0.00001.000000  0.0000
CBEAM       2898       3    3056    3055  0.00001.000000  0.0000
CBEAM       2899       3    3055    3054  0.00001.000000  0.0000
CBEAM       2900       3    3054    3053  0.00001.000000  0.0000
CBEAM       2901       3    3053    3052  0.00001.000000  0.0000
CBEAM       2902       3    3052    3051  0.00001.000000  0.0000
CBEAM       2903       3    3051    3050  0.00001.000000  0.0000
CBEAM       2904       3    3050    3049  0.00001.000000  0.0000
CBEAM       2905       3    3049    3048  0.00001.000000  0.0000
CBEAM       2906       3    3048    3047  0.00001.000000  0.0000
CBEAM       2907       3    3047    3046  0.00001.000000  0.0000
CBEAM       2908       3    3046    3045  0.00001.000000  0.0000
CBEAM       2909       3    3045    3044  0.00001.000000  0.0000
CBEAM       2910       3    3044    3043  0.00001.000000  0.0000
CBEAM       2911       3    3043    3042  0.00001.000000  0.0000
CBEAM       2912       3    3042    3041  0.00001.000000  0.0000
CBEAM       2913       3    3041    3040  0.00001.000000  0.0000
CBEAM       2914       3    3040    3039  0.00001.000000  0.0000
CBEAM       2915       3    3039    3038  0.00001.000000  0.0000
CBEAM       2916       3    3038    3037  0.00001.000000  0.0000
CBEAM       2917       3    3037    3036  0.00001.000000  0.0000
CBEAM       2918       3    3036    3035  0.00001.000000  0.0000
CBEAM       2919       3    3035    3034  0.00001.000000  0.0000
CBEAM       2920       3    3034    3033  0.00001.000000  0.0000
CBEAM       2921       3    3033    3032  0.00001.000000  0.0000
CBEAM       2922       3    3032    3031  0.00001.000000  0.0000
CBEAM       2923       3    3031    3030  0.00001.000000  0.0000
CBEAM       2924       3    3030    3029  0.00001.000000  0.0000
CBEAM       2925       3    3029    3028  0.00001.000000  0.0000
CBEAM       2926       3    3028    3027  0.00001.000000  0.0000
CBEAM       2927       3    3027    3026  0.00001.000000  0.0000
CBEAM       2928       3    3026    3025  0.00001.000000  0.0000
CBEAM       2929       3    3025    3024  0.00001.000000  0.0000
CBEAM       2930       3    3024    3023  0.00001.000000  0.0000
CBEAM       2931       3    3023    3022  0.00001.000000  0.0000
CBEAM       2932       3    3022    3021  0.00001.000000  0.0000
CBEAM       2933       3    3021    3020  0.00001.000000  0.0000
CBEAM       2934       3    3020    3019  0.00001.000000  0.0000
CBEAM       2935       3    3019    3018  0.00001.000000  0.0000
CBEAM       2936       3    3018    3017  0.00001.000000  0.0000
CBEAM       2937       3    3017    3016  0.00001.000000  0.0000
CBEAM       2938       3    3016    3015  0.00001.000000  0.0000
CBEAM       2939       3    3015    3014  0.00001.000000  0.0000
CBEAM       2940       3    3014    3013  0.00001.000000  0.0000
CBEAM       2941       3    3013    3012  0.00001.000000  0.0000
CBEAM       2942       3    3012    3011  0.00001.000000  0.0000
CBEAM       2943       3    3011    3010  0.00001.000000  0.0000
CBEAM       2944       3    3010    3009  0.00001.000000  0.0000
CBEAM       2945       3    3009    3008  0.00001.000000  0.0000
CBEAM       2946       3    3008    3007  0.00001.000000  0.0000
CBEAM       2947       3    3007    3006  0.00001.000000  0.0000
CBEAM       2948       3    3006    3005  0.00001.000000  0.0000
CBEAM       2949       3    3005    3004  0.00001.000000  0.0000
CBEAM       2950       3    3004    3003  0.00001.000000  0.0000
CBEAM       2951       3    3003    3002  0.00001.000000  0.0000
CBEAM       2952       3    3002    3001  0.00001.000000  0.0000
CBEAM       2953       3    3001    3000  0.00001.000000  0.0000
CBEAM       2954       3    3000    2999  0.00001.000000  0.0000
CBEAM       2955       3    2999    2998  0.00001.000000  0.0000
CBEAM       2956       3    2998    2997  0.00001.000000  0.0000
CBEAM       2957       3    2997    2996  0.00001.000000  0.0000
CBEAM       2958       3    2996    2995  0.00001.000000  0.0000
CBEAM       2959       3    2995    2994  0.00001.000000  0.0000
CBEAM       2960       3    2994    2993  0.00001.000000  0.0000
CBEAM       2961       3    2993    2992  0.00001.000000  0.0000
CBEAM       2962       3    2992    2991  0.00001.000000  0.0000
CBEAM       2963       3    2991    2990  0.00001.000000  0.0000
CBEAM       2964       3    2990    2989  0.00001.000000  0.0000
CBEAM       2965       3    2989    2988  0.00001.000000  0.0000
CBEAM       2966       3    2988    2987  0.00001.000000  0.0000
CBEAM       2967       3    2987    2986  0.00001.000000  0.0000
CBEAM       2968       3    2986    2985  0.00001.000000  0.0000
CBEAM       2969       3    2985    2984  0.00001.000000  0.0000
CBEAM       2970       3    2984    2983  0.00001.000000  0.0000
CBEAM       2971       3    2983    2982  0.00001.000000  0.0000
CBEAM       2972       3    2982    2981  0.00001.000000  0.0000
CBEAM       2973       3    2981    2980  0.00001.000000  0.0000
CBEAM       2974       3    2980    2979  0.00001.000000  0.0000
CBEAM       2975       3    2979    2978  0.00001.000000  0.0000
CBEAM       2976       3    2978    2977  0.00001.000000  0.0000
CBEAM       2977       3    2977    2976  0.00001.000000  0.0000
CBEAM       2978       3    2976    2975  0.00001.000000  0.0000
CBEAM       2979       3    2975    2974  0.00001.000000  0.0000
CBEAM       2980       3    2974    2973  0.00001.000000  0.0000
CBEAM       2981       3    2973    2972  0.00001.000000  0.0000
CBEAM       2982       3    2972    2971  0.00001.000000  0.0000
CBEAM       2983       3    2971    2970  0.00001.000000  0.0000
CBEAM       2984       3    2970    2969  0.00001.000000  0.0000
CBEAM       2985       3    2969    2968  0.00001.000000  0.0000
CBEAM       2986       3    2968    2967  0.00001.000000  0.0000
CBEAM       2987       3    2967    2966  0.00001.000000  0.0000
CBEAM       2988       3    2966    2965  0.00001.000000  0.0000
CBEAM       2989       3    2965    2964  0.00001.000000  0.0000
CBEAM       2990       3    2964    2963  0.00001.000000  0.0000
CBEAM       2991       3    2963    2962  0.00001.000000  0.0000
CBEAM       2992       3    2962    2961  0.00001.000000  0.0000
CBEAM       2993       3    2961    2960  0.00001.000000  0.0000
CBEAM       2994       3    2960    2959  0.00001.000000  0.0000
CBEAM       2995       3    2959    2958  0.00001.000000  0.0000
CBEAM       2996       3    2958    2957  0.00001.000000  0.0000
CBEAM       2997       3    2957    2956  0.00001.000000  0.0000
CBEAM       2998       3    2956    2955  0.00001.000000  0.0000
CBEAM       2999       3    2955    2954  0.00001.000000  0.0000
CBEAM       3000       3    2954    2953  0.00001.000000  0.0000
CBEAM       3001       3    2953    2952  0.00001.000000  0.0000
CBEAM       3002       3    2952    2951  0.00001.000000  0.0000
CBEAM       3003       3    2951    2950  0.00001.000000  0.0000
CBEAM       3004       3    2950    2949  0.00001.000000  0.0000
CBEAM       3005       3    2949    2948  0.00001.000000  0.0000
CBEAM       3006       3    2948    2947  0.00001.000000  0.0000
CBEAM       3007       3    2947    2946  0.00001.000000  0.0000
CBEAM       3008       3    2946    2945  0.00001.000000  0.0000
CBEAM       3009       3    2945    2944  0.00001.000000  0.0000
CBEAM       3010       3    2944    2943  0.00001.000000  0.0000
CBEAM       3011       3    2943    2942  0.00001.000000  0.0000
CBEAM       3012       3    2942    2941  0.00001.000000  0.0000
CBEAM       3013       3    2941    2940  0.00001.000000  0.0000
CBEAM       3014       3    2940    2939  0.00001.000000  0.0000
CBEAM       3015       3    2939    2938  0.00001.000000  0.0000
CBEAM       3016       3    2938    2937  0.00001.000000  0.0000
CBEAM       3017       3    2937    2936  0.00001.000000  0.0000
CBEAM       3018       3    2936    2935  0.00001.000000  0.0000
CBEAM       3019       3    2935    2934  0.00001.000000  0.0000
CBEAM       3020       3    2934    2933  0.00001.000000  0.0000
CBEAM       3021       3    2933    2932  0.00001.000000  0.0000
CBEAM       3022       3    2932    2931  0.00001.000000  0.0000
CBEAM       3023       3    2931    2930  0.00001.000000  0.0000
CBEAM       3024       3    2930    2929  0.00001.000000  0.0000
CBEAM       3025       3    2929    2928  0.00001.000000  0.0000
CBEAM       3026       3    2928    2927  0.00001.000000  0.0000
CBEAM       3027       3    2927    2926  0.00001.000000  0.0000
CBEAM       3028       3    2926    2925  0.00001.000000  0.0000
CBEAM       3029       3    2925    2924  0.00001.000000  0.0000
CBEAM       3030       3    2924    2923  0.00001.000000  0.0000
CBEAM       3031       3    2923    2922  0.00001.000000  0.0000
CBEAM       3032       3    2922    2921  0.00001.000000  0.0000
CBEAM       3033       3    2921    2920  0.00001.000000  0.0000
CBEAM       3034       3    2920    2919  0.00001.000000  0.0000
CBEAM       3035       3    2919    2918  0.00001.000000  0.0000
CBEAM       3036       3    2918    2917  0.00001.000000  0.0000
CBEAM       3037       3    2917    2916  0.00001.000000  0.0000
CBEAM       3038       3    2916    2915  0.00001.000000  0.0000
CBEAM       3039       3    2915    2914  0.00001.000000  0.0000
CBEAM       3040       3    2914    2913  0.00001.000000  0.0000
CBEAM       3041       3    2913    2912  0.00001.000000  0.0000
CBEAM       3042       3    2912    2911  0.00001.000000  0.0000
CBEAM       3043       3    2911    2910  0.00001.000000  0.0000
CBEAM       3044       3    2910    2909  0.00001.000000  0.0000
CBEAM       3045       3    2909    2908  0.00001.000000  0.0000
CBEAM       3046       3    2908    2907  0.00001.000000  0.0000
CBEAM       3047       3    2907    2906  0.00001.000000  0.0000
CBEAM       3048       3    2906    2905  0.00001.000000  0.0000
CBEAM       3049       3    2905    2904  0.00001.000000  0.0000
CBEAM       3050       3    2904    2903  0.00001.000000  0.0000
CBEAM       3051       3    2903    2902  0.00001.000000  0.0000
CBEAM       3052       3    2902    2901  0.00001.000000  0.0000
CBEAM       3053       3    2901    2900  0.00001.000000  0.0000
CBEAM       3054       3    2900    2899  0.00001.000000  0.0000
CBEAM       3055       3    2899    2898  0.00001.000000  0.0000
CBEAM       3056       3    2898    2897  0.00001.000000  0.0000
CBEAM       3057       3    2897    2896  0.00001.000000  0.0000
CBEAM       3058       3    2896    2895  0.00001.000000  0.0000
CBEAM       3059       3    2895    2894  0.00001.000000  0.0000
CBEAM       3060       3    2894    2893  0.00001.000000  0.0000
CBEAM       3061       3    2893    2892  0.00001.000000  0.0000
CBEAM       3062       3    2892    2891  0.00001.000000  0.0000
CBEAM       3063       3    2891    2890  0.00001.000000  0.0000
CBEAM       3064       3    2890    2889  0.00001.000000  0.0000
CBEAM       3065       3    2889    2888  0.00001.000000  0.0000
CBEAM       3066       3    2888    2887  0.00001.000000  0.0000
CBEAM       3067       3    2887    2886  0.00001.000000  0.0000
CBEAM       3068       3    2886    2885  0.00001.000000  0.0000
CBEAM       3069       3    2885    2884  0.00001.000000  0.0000
CBEAM       3070       3    2884    2883  0.00001.000000  0.0000
CBEAM       3071       3    2883    2882  0.00001.000000  0.0000
CBEAM       3072       3    2882    2881  0.00001.000000  0.0000
CBEAM       3073       3    2881    2880  0.00001.000000  0.0000
CBEAM       3074       3    2880    2879  0.00001.000000  0.0000
CBEAM       3075       3    2879    2878  0.00001.000000  0.0000
CBEAM       3076       3    2878    2877  0.00001.000000  0.0000
CBEAM       3077       3    2877    2876  0.00001.000000  0.0000
CBEAM       3078       3    2876    2875  0.00001.000000  0.0000
CBEAM       3079       3    2875    2874  0.00001.000000  0.0000
CBEAM       3080       3    2874    2873  0.00001.000000  0.0000
CBEAM       3081       3    2873    2872  0.00001.000000  0.0000
CBEAM       3082       3    2872    2871  0.00001.000000  0.0000
CBEAM       3083       3    2871    2870  0.00001.000000  0.0000
CBEAM       3084       3    2870    2869  0.00001.000000  0.0000
CBEAM       3085       3    2869    2868  0.00001.000000  0.0000
CBEAM       3086       3    2868    2867  0.00001.000000  0.0000
CBEAM       3087       3    2867    2866  0.00001.000000  0.0000
CBEAM       3088       3    2866    2865  0.00001.000000  0.0000
CBEAM       3089       3    2865    2864  0.00001.000000  0.0000
CBEAM       3090       3    2864    2863  0.00001.000000  0.0000
CBEAM       3091       3    2863    2862  0.00001.000000  0.0000
CBEAM       3092       3    2862    2861  0.00001.000000  0.0000
CBEAM       3093       3    2861    2860  0.00001.000000  0.0000
CBEAM       3094       3    2860    2859  0.00001.000000  0.0000
CBEAM       3095       3    2859    2858  0.00001.000000  0.0000
CBEAM       3096       3    2858    2857  0.00001.000000  0.0000
CBEAM       3097       3    2857    2856  0.00001.000000  0.0000
CBEAM       3098       3    2856    2855  0.00001.000000  0.0000
CBEAM       3099       3    2855    2854  0.00001.000000  0.0000
CBEAM       3100       3    2854    2853  0.00001.000000  0.0000
CBEAM       3101       3    2853    2852  0.00001.000000  0.0000
CBEAM       3102       3    2852    2851  0.00001.000000  0.0000
CBEAM       3103       3    2851    2850  0.00001.000000  0.0000
CBEAM       3104       3    2850    2849  0.00001.000000  0.0000
CBEAM       3105       3    2849    2848  0.00001.000000  0.0000
CBEAM       3106       3    2848    2847  0.00001.000000  0.0000
CBEAM       3107       3    2847    2846  0.00001.000000  0.0000
CBEAM       3108       3    2846    2845  0.00001.000000  0.0000
CBEAM       3109       3    2845    2844  0.00001.000000  0.0000
CBEAM       3110       3    2844    2843  0.00001.000000  0.0000
CBEAM       3111       3    2843    2842  0.00001.000000  0.0000
CBEAM       3112       3    2842    2841  0.00001.000000  0.0000
CBEAM       3113       3    2841    2840  0.00001.000000  0.0000
CBEAM       3114       3    2840    2839  0.00001.000000  0.0000
CBEAM       3115       3    2839    2838  0.00001.000000  0.0000
CBEAM       3116       3    2838    2837  0.00001.000000  0.0000
CBEAM       3117       3    2837    2836  0.00001.000000  0.0000
CBEAM       3118       3    2836    2835  0.00001.000000  0.0000
CBEAM       3119       3    2835    2834  0.00001.000000  0.0000
CBEAM       3120       3    2834    2833  0.00001.000000  0.0000
CBEAM       3121       3    2833    2832  0.00001.000000  0.0000
CBEAM       3122       3    2832    2831  0.00001.000000  0.0000
CBEAM       3123       3    2831    2830  0.00001.000000  0.0000
CBEAM       3124       3    2830    2829  0.00001.000000  0.0000
CBEAM       3125       3    2829    2828  0.00001.000000  0.0000
CBEAM       3126       3    2828    2827  0.00001.000000  0.0000
CBEAM       3127       3    2827    2826  0.00001.000000  0.0000
CBEAM       3128       3    2826    2825  0.00001.000000  0.0000
CBEAM       3129       3    2825    2824  0.00001.000000  0.0000
CBEAM       3130       3    2824    2823  0.00001.000000  0.0000
CBEAM       3131       3    2823    2822  0.00001.000000  0.0000
CBEAM       3132       3    2822    2821  0.00001.000000  0.0000
CBEAM       3133       3    2821    2820  0.00001.000000  0.0000
CBEAM       3134       3    2820    2819  0.00001.000000  0.0000
CBEAM       3135       3    2819    2818  0.00001.000000  0.0000
CBEAM       3136       3    2818    2817  0.00001.000000  0.0000
CBEAM       3137       3    2817    2816  0.00001.000000  0.0000
CBEAM       3138       3    2816    2815  0.00001.000000  0.0000
CBEAM       3139       3    2815    2814  0.00001.000000  0.0000
CBEAM       3140       3    2814    2813  0.00001.000000  0.0000
CBEAM       3141       3    2813    2812  0.00001.000000  0.0000
CBEAM       3142       3    2812    2811  0.00001.000000  0.0000
CBEAM       3143       3    2811    2810  0.00001.000000  0.0000
CBEAM       3144       3    2810    2809  0.00001.000000  0.0000
CBEAM       3145       3    2809    2808  0.00001.000000  0.0000
CBEAM       3146       3    2808    2807  0.00001.000000  0.0000
CBEAM       3147       3    2807    2806  0.00001.000000  0.0000
CBEAM       3148       3    2806    2805  0.00001.000000  0.0000
CBEAM       3149       3    2805    2804  0.00001.000000  0.0000
CBEAM       3150       3    2804    2803  0.00001.000000  0.0000
CBEAM       3151       3    2803    2802  0.00001.000000  0.0000
CBEAM       3152       3    2802    2801  0.00001.000000  0.0000
CBEAM       3153       3    2801    2800  0.00001.000000  0.0000
CBEAM       3154       3    2800    2799  0.00001.000000  0.0000
CBEAM       3155       3    2799    2798  0.00001.000000  0.0000
CBEAM       3156       3    2798    2797  0.00001.000000  0.0000
CBEAM       3157       3    2797    2796  0.00001.000000  0.0000
CBEAM       3158       3    2796    2795  0.00001.000000  0.0000
CBEAM       3159       3    2795    2794  0.00001.000000  0.0000
CBEAM       3160       3    2794    2793  0.00001.000000  0.0000
CBEAM       3161       3    2793    2792  0.00001.000000  0.0000
CBEAM       3162       3    2792    2791  0.00001.000000  0.0000
CBEAM       3163       3    2791    2790  0.00001.000000  0.0000
CBEAM       3164       3    2790    2789  0.00001.000000  0.0000
CBEAM       3165       3    2789    2788  0.00001.000000  0.0000
CBEAM       3166       3    2788    2787  0.00001.000000  0.0000
CBEAM       3167       3    2787    2786  0.00001.000000  0.0000
CBEAM       3168       3    2786    2785  0.00001.000000  0.0000
CBEAM       3169       3    2785    2784  0.00001.000000  0.0000
CBEAM       3170       3    2784    2783  0.00001.000000  0.0000
CBEAM       3171       3    2783    2782  0.00001.000000  0.0000
CBEAM       3172       3    2782    2781  0.00001.000000  0.0000
CBEAM       3173       3    2781    2780  0.00001.000000  0.0000
CBEAM       3174       3    2780    2779  0.00001.000000  0.0000
CBEAM       3175       3    2779    2778  0.00001.000000  0.0000
CBEAM       3176       3    2778    2777  0.00001.000000  0.0000
CBEAM       3177       3    2777    2776  0.00001.000000  0.0000
CBEAM       3178       3    2776    2775  0.00001.000000  0.0000
CBEAM       3179       3    2775    2774  0.00001.000000  0.0000
CBEAM       3180       3    2774    2773  0.00001.000000  0.0000
CBEAM       3181       3    2773    2772  0.00001.000000  0.0000
CBEAM       3182       3    2772    2771  0.00001.000000  0.0000
CBEAM       3183       3    2771    2770  0.00001.000000  0.0000
CBEAM       3184       3    2770    2769  0.00001.000000  0.0000
CBEAM       3185       3    2769    2768  0.00001.000000  0.0000
CBEAM       3186       3    2768    2767  0.00001.000000  0.0000
CBEAM       3187       3    2767    2766  0.00001.000000  0.0000
CBEAM       3188       3    2766    2765  0.00001.000000  0.0000
CBEAM       3189       3    2765    2764  0.00001.000000  0.0000
CBEAM       3190       3    2764    2763  0.00001.000000  0.0000
CBEAM       3191       3    2763    2762  0.00001.000000  0.0000
CBEAM       3192       3    2762    2761  0.00001.000000  0.0000
CBEAM       3193       3    2761    2760  0.00001.000000  0.0000
CBEAM       3194       3    2760    2759  0.00001.000000  0.0000
CBEAM       3195       3    2759    2758  0.00001.000000  0.0000
CBEAM       3196       3    2758    2757  0.00001.000000  0.0000
CBEAM       3197       3    2757    2756  0.00001.000000  0.0000
CBEAM       3198       3    2756    2755  0.00001.000000  0.0000
CBEAM       3199       3    2755    2754  0.00001.000000  0.0000
CBEAM       3200       3    2754    2753  0.00001.000000  0.0000
CBEAM       3201       3    2753    2752  0.00001.000000  0.0000
CBEAM       3202       3    2752    2751  0.00001.000000  0.0000
CBEAM       3203       3    2751    2750  0.00001.000000  0.0000
CBEAM       3204       3    2750    2749  0.00001.000000  0.0000
CBEAM       3205       3    2749    2748  0.00001.000000  0.0000
CBEAM       3206       3    2748    2747  0.00001.000000  0.0000
CBEAM       3207       3    2747    2746  0.00001.000000  0.0000
CBEAM       3208       3    2746    2745  0.00001.000000  0.0000
CBEAM       3209       3    2745    2744  0.00001.000000  0.0000
CBEAM       3210       3    2744    2743  0.00001.000000  0.0000
CBEAM       3211       3    2743    2742  0.00001.000000  0.0000
CBEAM       3212       3    2742    2741  0.00001.000000  0.0000
CBEAM       3213       3    2741    2740  0.00001.000000  0.0000
CBEAM       3214       3    2740    2739  0.00001.000000  0.0000
CBEAM       3215       3    2739    2738  0.00001.000000  0.0000
CBEAM       3216       3    2738    2737  0.00001.000000  0.0000
CBEAM       3217       3    2737    2736  0.00001.000000  0.0000
CBEAM       3218       3    2736    2735  0.00001.000000  0.0000
CBEAM       3219       3    2735    2734  0.00001.000000  0.0000
CBEAM       3220       3    2734    2733  0.00001.000000  0.0000
CBEAM       3221       3    2733    2732  0.00001.000000  0.0000
CBEAM       3222       3    2732    2731  0.00001.000000  0.0000
CBEAM       3223       3    2731    2730  0.00001.000000  0.0000
CBEAM       3224       3    2730    2729  0.00001.000000  0.0000
CBEAM       3225       3    2729    2728  0.00001.000000  0.0000
CBEAM       3226       3    2728    2727  0.00001.000000  0.0000
CBEAM       3227       3    2727    2726  0.00001.000000  0.0000
CBEAM       3228       3    2726    2725  0.00001.000000  0.0000
CBEAM       3229       3    2725    2724  0.00001.000000  0.0000
CBEAM       3230       3    2724    2723  0.00001.000000  0.0000
CBEAM       3231       3    2723    2722  0.00001.000000  0.0000
CBEAM       3232       3    2722    2721  0.00001.000000  0.0000
CBEAM       3233       3    2721    2720  0.00001.000000  0.0000
CBEAM       3234       3    2720    2719  0.00001.000000  0.0000
CBEAM       3235       3    2719    2718  0.00001.000000  0.0000
CBEAM       3236       3    2718    2717  0.00001.000000  0.0000
CBEAM       3237       3    2717    2716  0.00001.000000  0.0000
CBEAM       3238       3    2716    2715  0.00001.000000  0.0000
CBEAM       3239       3    2715    2714  0.00001.000000  0.0000
CBEAM       3240       3    2714    2713  0.00001.000000  0.0000
CBEAM       3241       3    2713    2712  0.00001.000000  0.0000
CBEAM       3242       3    2712    2711  0.00001.000000  0.0000
CBEAM       3243       3    2711    2710  0.00001.000000  0.0000
CBEAM       3244       3    2710    2709  0.00001.000000  0.0000
CBEAM       3245       3    2709    2708  0.00001.000000  0.0000
CBEAM       3246       3    2708    2707  0.00001.000000  0.0000
CBEAM       3247       3    2707    2706  0.00001.000000  0.0000
CBEAM       3248       3    2706    2705  0.00001.000000  0.0000
CBEAM       3249       3    2705    2704  0.00001.000000  0.0000
CBEAM       3250       3    2704    2703  0.00001.000000  0.0000
CBEAM       3251       3    2703    2702  0.00001.000000  0.0000
CBEAM       3252       3    2702    2701  0.00001.000000  0.0000
CBEAM       3253       3    2701    2700  0.00001.000000  0.0000
CBEAM       3254       3    2700    2699  0.00001.000000  0.0000
CBEAM       3255       3    2699    2698  0.00001.000000  0.0000
CBEAM       3256       3    2698    2697  0.00001.000000  0.0000
CBEAM       3257       3    2697    2696  0.00001.000000  0.0000
CBEAM       3258       3    2696    2695  0.00001.000000  0.0000
CBEAM       3259       3    2695    2694  0.00001.000000  0.0000
CBEAM       3260       3    2694    2693  0.00001.000000  0.0000
CBEAM       3261       3    2693    2692  0.00001.000000  0.0000
CBEAM       3262       3    2692    2691  0.00001.000000  0.0000
CBEAM       3263       3    2691    2690  0.00001.000000  0.0000
CBEAM       3264       3    2690    2689  0.00001.000000  0.0000
CBEAM       3265       3    2689    2688  0.00001.000000  0.0000
CBEAM       3266       3    2688    2687  0.00001.000000  0.0000
CBEAM       3267       3    2687    2686  0.00001.000000  0.0000
CBEAM       3268       3    2686    2685  0.00001.000000  0.0000
CBEAM       3269       3    2685    2684  0.00001.000000  0.0000
CBEAM       3270       3    2684    2683  0.00001.000000  0.0000
CBEAM       3271       3    2683    2682  0.00001.000000  0.0000
CBEAM       3272       3    2682    2681  0.00001.000000  0.0000
CBEAM       3273       3    2681    2680  0.00001.000000  0.0000
CBEAM       3274       3    2680    2679  0.00001.000000  0.0000
CBEAM       3275       3    2679    2678  0.00001.000000  0.0000
CBEAM       3276       3    2678    2677  0.00001.000000  0.0000
CBEAM       3277       3    2677    2676  0.00001.000000  0.0000
CBEAM       3278       3    2676    2675  0.00001.000000  0.0000
CBEAM       3279       3    2675    2674  0.00001.000000  0.0000
CBEAM       3280       3    2674    2673  0.00001.000000  0.0000
CBEAM       3281       3    2673    2672  0.00001.000000  0.0000
CBEAM       3282       3    2672    2671  0.00001.000000  0.0000
CBEAM       3283       3    2671    2670  0.00001.000000  0.0000
CBEAM       3284       3    2670    2669  0.00001.000000  0.0000
CBEAM       3285       3    2669    2668  0.00001.000000  0.0000
CBEAM       3286       3    2668    2667  0.00001.000000  0.0000
CBEAM       3287       3    2667    2666  0.00001.000000  0.0000
CBEAM       3288       3    2666    2665  0.00001.000000  0.0000
CBEAM       3289       3    2665    2664  0.00001.000000  0.0000
CBEAM       3290       3    2664    2663  0.00001.000000  0.0000
CBEAM       3291       3    2663    2662  0.00001.000000  0.0000
CBEAM       3292       3    2662    2661  0.00001.000000  0.0000
CBEAM       3293       3    2661    2660  0.00001.000000  0.0000
CBEAM       3294       3    2660    2659  0.00001.000000  0.0000
CBEAM       3295       3    2659    2658  0.00001.000000  0.0000
CBEAM       3296       3    2658    2657  0.00001.000000  0.0000
CBEAM       3297       3    2657    2656  0.00001.000000  0.0000
CBEAM       3298       3    2656    2655  0.00001.000000  0.0000
CBEAM       3299       3    2655    2654  0.00001.000000  0.0000
CBEAM       3300       3    2654    2653  0.00001.000000  0.0000
CBEAM       3301       3    2653    2652  0.00001.000000  0.0000
CBEAM       3302       3    2652    2651  0.00001.000000  0.0000
CBEAM       3303       3    2651    2650  0.00001.000000  0.0000
CBEAM       3304       3    2650    2649  0.00001.000000  0.0000
CBEAM       3305       3    2649    2648  0.00001.000000  0.0000
CBEAM       3306       3    2648    2647  0.00001.000000  0.0000
CBEAM       3307       3    2647    2646  0.00001.000000  0.0000
CBEAM       3308       3    2646    2645  0.00001.000000  0.0000
CBEAM       3309       3    2645    2644  0.00001.000000  0.0000
CBEAM       3310       3    2644    2643  0.00001.000000  0.0000
CBEAM       3311       3    2643    2642  0.00001.000000  0.0000
CBEAM       3312       3    2642    2641  0.00001.000000  0.0000
CBEAM       3313       3    2641    2640  0.00001.000000  0.0000
CBEAM       3314       3    2640    2639  0.00001.000000  0.0000
CBEAM       3315       3    2639    2638  0.00001.000000  0.0000
CBEAM       3316       3    2638    2637  0.00001.000000  0.0000
CBEAM       3317       3    2637    2636  0.00001.000000  0.0000
CBEAM       3318       3    2636    2635  0.00001.000000  0.0000
CBEAM       3319       3    2635    2634  0.00001.000000  0.0000
CBEAM       3320       3    2634    2633  0.00001.000000  0.0000
CBEAM       3321       3    2633    2632  0.00001.000000  0.0000
CBEAM       3322       3    2632    2631  0.00001.000000  0.0000
CBEAM       3323       3    2631    2630  0.00001.000000  0.0000
CBEAM       3324       3    2630    2629  0.00001.000000  0.0000
CBEAM       3325       3    2629    2628  0.00001.000000  0.0000
CBEAM       3326       3    2628    2627  0.00001.000000  0.0000
CBEAM       3327       3    2627    2626  0.00001.000000  0.0000
CBEAM       3328       3    2626    2625  0.00001.000000  0.0000
CBEAM       3329       3    2625    2624  0.00001.000000  0.0000
CBEAM       3330       3    2624    2623  0.00001.000000  0.0000
CBEAM       3331       3    2623    2622  0.00001.000000  0.0000
CBEAM       3332       3    2622    2621  0.00001.000000  0.0000
CBEAM       3333       3    2621    2620  0.00001.000000  0.0000
CBEAM       3334       3    2620    2619  0.00001.000000  0.0000
CBEAM       3335       3    2619    2618  0.00001.000000  0.0000
CBEAM       3336       3    2618    2617  0.00001.000000  0.0000
CBEAM       3337       3    2617    2616  0.00001.000000  0.0000
CBEAM       3338       3    2616    2615  0.00001.000000  0.0000
CBEAM       3339       3    2615    2614  0.00001.000000  0.0000
CBEAM       3340       3    2614    2613  0.00001.000000  0.0000
CBEAM       3341       3    2613    2612  0.00001.000000  0.0000
CBEAM       3342       3    2612    2611  0.00001.000000  0.0000
CBEAM       3343       3    2611    2610  0.00001.000000  0.0000
CBEAM       3344       3    2610    2609  0.00001.000000  0.0000
CBEAM       3345       3    2609    2608  0.00001.000000  0.0000
CBEAM       3346       3    2608    2607  0.00001.000000  0.0000
CBEAM       3347       3    2607    2606  0.00001.000000  0.0000
CBEAM       3348       3    2606    2605  0.00001.000000  0.0000
CBEAM       3349       3    2605    2604  0.00001.000000  0.0000
CBEAM       3350       3    2604    2603  0.00001.000000  0.0000
CBEAM       3351       3    2603    2602  0.00001.000000  0.0000
CBEAM       3352       3    2602    2601  0.00001.000000  0.0000
CBEAM       3353       3    2601    2600  0.00001.000000  0.0000
CBEAM       3354       3    2600    2599  0.00001.000000  0.0000
CBEAM       3355       3    2599    2598  0.00001.000000  0.0000
CBEAM       3356       3    2598    2597  0.00001.000000  0.0000
CBEAM       3357       3    2597    2596  0.00001.000000  0.0000
CBEAM       3358       3    2596    2595  0.00001.000000  0.0000
CBEAM       3359       3    2595    2594  0.00001.000000  0.0000
CBEAM       3360       3    2594    2593  0.00001.000000  0.0000
CBEAM       3361       3    2593    2592  0.00001.000000  0.0000
CBEAM       3362       3    2592    2591  0.00001.000000  0.0000
CBEAM       3363       3    2591    2590  0.00001.000000  0.0000
CBEAM       3364       3    2590    2589  0.00001.000000  0.0000
CBEAM       3365       3    2589    2588  0.00001.000000  0.0000
CBEAM       3366       3    2588    2587  0.00001.000000  0.0000
CBEAM       3367       3    2587    2586  0.00001.000000  0.0000
CBEAM       3368       3    2586    2585  0.00001.000000  0.0000
CBEAM       3369       3    2585    2584  0.00001.000000  0.0000
CBEAM       3370       3    2584    2583  0.00001.000000  0.0000
CBEAM       3371       3    2583    2582  0.00001.000000  0.0000
CBEAM       3372       3    2582    2581  0.00001.000000  0.0000
CBEAM       3373       3    2581    2580  0.00001.000000  0.0000
CBEAM       3374       3    2580    2579  0.00001.000000  0.0000
CBEAM       3375       3    2579    2578  0.00001.000000  0.0000
CBEAM       3376       3    2578    2577  0.00001.000000  0.0000
CBEAM       3377       3    2577    2576  0.00001.000000  0.0000
CBEAM       3378       3    2576    2575  0.00001.000000  0.0000
CBEAM       3379       3    2575    2574  0.00001.000000  0.0000
CBEAM       3380       3    2574    2573  0.00001.000000  0.0000
CBEAM       3381       3    2573    2572  0.00001.000000  0.0000
CBEAM       3382       3    2572    2571  0.00001.000000  0.0000
CBEAM       3383       3    2571    2570  0.00001.000000  0.0000
CBEAM       3384       3    2570    2569  0.00001.000000  0.0000
CBEAM       3385       3    2569    2568  0.00001.000000  0.0000
CBEAM       3386       3    2568    2567  0.00001.000000  0.0000
CBEAM       3387       3    2567    2566  0.00001.000000  0.0000
CBEAM       3388       3    2566    2565  0.00001.000000  0.0000
CBEAM       3389       3    2565    2564  0.00001.000000  0.0000
CBEAM       3390       3    2564    2563  0.00001.000000  0.0000
CBEAM       3391       3    2563    2562  0.00001.000000  0.0000
CBEAM       3392       3    2562    2561  0.00001.000000  0.0000
CBEAM       3393       3    2561    2560  0.00001.000000  0.0000
CBEAM       3394       3    2560    2559  0.00001.000000  0.0000
CBEAM       3395       3    2559    2558  0.00001.000000  0.0000
CBEAM       3396       3    2558    2557  0.00001.000000  0.0000
CBEAM       3397       3    2557    2556  0.00001.000000  0.0000
CBEAM       3398       3    2556    2555  0.00001.000000  0.0000
CBEAM       3399       3    2555    2554  0.00001.000000  0.0000
CBEAM       3400       3    2554    2553  0.00001.000000  0.0000
CBEAM       3401       3    2553    2552  0.00001.000000  0.0000
CBEAM       3402       3    2552    2551  0.00001.000000  0.0000
CBEAM       3403       3    2551    2550  0.00001.000000  0.0000
CBEAM       3404       3    2550    2549  0.00001.000000  0.0000
CBEAM       3405       3    2549    2548  0.00001.000000  0.0000
CBEAM       3406       3    2548    2547  0.00001.000000  0.0000
CBEAM       3407       3    2547    2546  0.00001.000000  0.0000
CBEAM       3408       3    2546    2545  0.00001.000000  0.0000
CBEAM       3409       3    2545    2544  0.00001.000000  0.0000
CBEAM       3410       3    2544    2543  0.00001.000000  0.0000
CBEAM       3411       3    2543    2542  0.00001.000000  0.0000
CBEAM       3412       3    2542    2541  0.00001.000000  0.0000
CBEAM       3413       3    2541    2540  0.00001.000000  0.0000
CBEAM       3414       3    2540    2539  0.00001.000000  0.0000
CBEAM       3415       3    2539    2538  0.00001.000000  0.0000
CBEAM       3416       3    2538    2537  0.00001.000000  0.0000
CBEAM       3417       3    2537    2536  0.00001.000000  0.0000
CBEAM       3418       3    2536    2535  0.00001.000000  0.0000
CBEAM       3419       3    2535    2534  0.00001.000000  0.0000
CBEAM       3420       3    2534    2533  0.00001.000000  0.0000
CBEAM       3421       3    2533    2532  0.00001.000000  0.0000
CBEAM       3422       3    2532    2531  0.00001.000000  0.0000
CBEAM       3423       3    2531    2530  0.00001.000000  0.0000
CBEAM       3424       3    2530    2529  0.00001.000000  0.0000
CBEAM       3425       3    2529    2528  0.00001.000000  0.0000
CBEAM       3426       3    2528    2527  0.00001.000000  0.0000
CBEAM       3427       3    2527    2526  0.00001.000000  0.0000
CBEAM       3428       3    2526    2525  0.00001.000000  0.0000
CBEAM       3429       3    2525    2524  0.00001.000000  0.0000
CBEAM       3430       3    2524    2523  0.00001.000000  0.0000
CBEAM       3431       3    2523    2522  0.00001.000000  0.0000
CBEAM       3432       3    2522    2521  0.00001.000000  0.0000
CBEAM       3433       3    2521    2520  0.00001.000000  0.0000
CBEAM       3434       3    2520    2519  0.00001.000000  0.0000
CBEAM       3435       3    2519    2518  0.00001.000000  0.0000
CBEAM       3436       3    2518    2517  0.00001.000000  0.0000
CBEAM       3437       3    2517    2516  0.00001.000000  0.0000
CBEAM       3438       3    2516    2515  0.00001.000000  0.0000
CBEAM       3439       3    2515    2514  0.00001.000000  0.0000
CBEAM       3440       3    2514    2513  0.00001.000000  0.0000
CBEAM       3441       3    2513    2512  0.00001.000000  0.0000
CBEAM       3442       3    2512    2511  0.00001.000000  0.0000
CBEAM       3443       3    2511    2510  0.00001.000000  0.0000
CBEAM       3444       3    2510    2509  0.00001.000000  0.0000
CBEAM       3445       3    2509    2508  0.00001.000000  0.0000
CBEAM       3446       3    2508    2507  0.00001.000000  0.0000
CBEAM       3447       3    2507    2506  0.00001.000000  0.0000
CBEAM       3448       3    2506    2505  0.00001.000000  0.0000
CBEAM       3449       3    2505    2504  0.00001.000000  0.0000
CBEAM       3450       3    2504    2503  0.00001.000000  0.0000
CBEAM       3451       3    2503    2502  0.00001.000000  0.0000
CBEAM       3452       3    2502    2501  0.00001.000000  0.0000
CBEAM       3453       3    2501    2500  0.00001.000000  0.0000
CBEAM       3454       3    2500    2499  0.00001.000000  0.0000
CBEAM       3455       3    2499    2498  0.00001.000000  0.0000
CBEAM       3456       3    2498    2497  0.00001.000000  0.0000
CBEAM       3457       3    2497    2496  0.00001.000000  0.0000
CBEAM       3458       3    2496    2495  0.00001.000000  0.0000
CBEAM       3459       3    2495    2494  0.00001.000000  0.0000
CBEAM       3460       3    2494    2493  0.00001.000000  0.0000
CBEAM       3461       3    2493    2492  0.00001.000000  0.0000
CBEAM       3462       3    2492    2491  0.00001.000000  0.0000
CBEAM       3463       3    2491    2490  0.00001.000000  0.0000
CBEAM       3464       3    2490    2489  0.00001.000000  0.0000
CBEAM       3465       3    2489    2488  0.00001.000000  0.0000
CBEAM       3466       3    2488    2487  0.00001.000000  0.0000
CBEAM       3467       3    2487    2486  0.00001.000000  0.0000
CBEAM       3468       3    2486    2485  0.00001.000000  0.0000
CBEAM       3469       3    2485    2484  0.00001.000000  0.0000
CBEAM       3470       3    2484    2483  0.00001.000000  0.0000
CBEAM       3471       3    2483    2482  0.00001.000000  0.0000
CBEAM       3472       3    2482    2481  0.00001.000000  0.0000
CBEAM       3473       3    2481    2480  0.00001.000000  0.0000
CBEAM       3474       3    2480    2479  0.00001.000000  0.0000
CBEAM       3475       3    2479    2478  0.00001.000000  0.0000
CBEAM       3476       3    2478    2477  0.00001.000000  0.0000
CBEAM       3477       3    2477    2476  0.00001.000000  0.0000
CBEAM       3478       3    2476    2475  0.00001.000000  0.0000
CBEAM       3479       3    2475    2474  0.00001.000000  0.0000
CBEAM       3480       3    2474    2473  0.00001.000000  0.0000
CBEAM       3481       3    2473    2472  0.00001.000000  0.0000
CBEAM       3482       3    2472    2471  0.00001.000000  0.0000
CBEAM       3483       3    2471    2470  0.00001.000000  0.0000
CBEAM       3484       3    2470    2469  0.00001.000000  0.0000
CBEAM       3485       3    2469    2468  0.00001.000000  0.0000
CBEAM       3486       3    2468    2467  0.00001.000000  0.0000
CBEAM       3487       3    2467    2466  0.00001.000000  0.0000
CBEAM       3488       3    2466    2465  0.00001.000000  0.0000
CBEAM       3489       3    2465    2464  0.00001.000000  0.0000
CBEAM       3490       3    2464    2463  0.00001.000000  0.0000
CBEAM       3491       3    2463    2462  0.00001.000000  0.0000
CBEAM       3492       3    2462    2461  0.00001.000000  0.0000
CBEAM       3493       3    2461    2460  0.00001.000000  0.0000
CBEAM       3494       3    2460    2459  0.00001.000000  0.0000
CBEAM       3495       3    2459    2458  0.00001.000000  0.0000
CBEAM       3496       3    2458    2457  0.00001.000000  0.0000
CBEAM       3497       3    2457    2456  0.00001.000000  0.0000
CBEAM       3498       3    2456    2455  0.00001.000000  0.0000
CBEAM       3499       3    2455    2454  0.00001.000000  0.0000
CBEAM       3500       3    2454    2453  0.00001.000000  0.0000
CBEAM       3501       3    2453    2452  0.00001.000000  0.0000
CBEAM       3502       3    2452    2451  0.00001.000000  0.0000
CBEAM       3503       3    2451    2450  0.00001.000000  0.0000
CBEAM       3504       3    2450    2449  0.00001.000000  0.0000
CBEAM       3505       3    2449    2448  0.00001.000000  0.0000
CBEAM       3506       3    2448    2447  0.00001.000000  0.0000
CBEAM       3507       3    2447    2446  0.00001.000000  0.0000
CBEAM       3508       3    2446    2445  0.00001.000000  0.0000
CBEAM       3509       3    2445    2444  0.00001.000000  0.0000
CBEAM       3510       3    2444    2443  0.00001.000000  0.0000
CBEAM       3511       3    2443    2442  0.00001.000000  0.0000
CBEAM       3512       3    2442    2441  0.00001.000000  0.0000
CBEAM       3513       3    2441    2440  0.00001.000000  0.0000
CBEAM       3514       3    2440    2439  0.00001.000000  0.0000
CBEAM       3515       3    2439    2438  0.00001.000000  0.0000
CBEAM       3516       3    2438    2437  0.00001.000000  0.0000
CBEAM       3517       3    2437    2436  0.00001.000000  0.0000
CBEAM       3518       3    2436    2435  0.00001.000000  0.0000
CBEAM       3519       3    2435    2434  0.00001.000000  0.0000
CBEAM       3520       3    2434    2433  0.00001.000000  0.0000
CBEAM       3521       3    2433    2432  0.00001.000000  0.0000
CBEAM       3522       3    2432    2431  0.00001.000000  0.0000
CBEAM       3523       3    2431    2430  0.00001.000000  0.0000
CBEAM       3524       3    2430    2429  0.00001.000000  0.0000
CBEAM       3525       3    2429    2428  0.00001.000000  0.0000
CBEAM       3526       3    2428    2427  0.00001.000000  0.0000
CBEAM       3527       3    2427    2426  0.00001.000000  0.0000
CBEAM       3528       3    2426    2425  0.00001.000000  0.0000
CBEAM       3529       3    2425    2424  0.00001.000000  0.0000
CBEAM       3530       3    2424    2423  0.00001.000000  0.0000
CBEAM       3531       3    2423    2422  0.00001.000000  0.0000
CBEAM       3532       3    2422    2421  0.00001.000000  0.0000
CBEAM       3533       3    2421    2420  0.00001.000000  0.0000
CBEAM       3534       3    2420    2419  0.00001.000000  0.0000
CBEAM       3535       3    2419    2418  0.00001.000000  0.0000
CBEAM       3536       3    2418    2417  0.00001.000000  0.0000
CBEAM       3537       3    2417    2416  0.00001.000000  0.0000
CBEAM       3538       3    2416    2415  0.00001.000000  0.0000
CBEAM       3539       3    2415    2414  0.00001.000000  0.0000
CBEAM       3540       3    2414    2413  0.00001.000000  0.0000
CBEAM       3541       3    2413    2412  0.00001.000000  0.0000
CBEAM       3542       3    2412    2411  0.00001.000000  0.0000
CBEAM       3543       3    2411    2410  0.00001.000000  0.0000
CBEAM       3544       3    2410    2409  0.00001.000000  0.0000
CBEAM       3545       3    2409    2408  0.00001.000000  0.0000
CBEAM       3546       3    2408    2407  0.00001.000000  0.0000
CBEAM       3547       3    2407    2406  0.00001.000000  0.0000
CBEAM       3548       3    2406    2405  0.00001.000000  0.0000
CBEAM       3549       3    2405    2404  0.00001.000000  0.0000
CBEAM       3550       3    2404    2403  0.00001.000000  0.0000
CBEAM       3551       3    2403    2402  0.00001.000000  0.0000
CBEAM       3552       3    2402    2401  0.00001.000000  0.0000
CBEAM       3553       3    2401    2400  0.00001.000000  0.0000
CBEAM       3554       3    2400    2399  0.00001.000000  0.0000
CBEAM       3555       3    2399    2398  0.00001.000000  0.0000
CBEAM       3556       3    2398    2397  0.00001.000000  0.0000
CBEAM       3557       3    2397    2396  0.00001.000000  0.0000
CBEAM       3558       3    2396    2395  0.00001.000000  0.0000
CBEAM       3559       3    2395    2394  0.00001.000000  0.0000
CBEAM       3560       3    2394    2393  0.00001.000000  0.0000
CBEAM       3561       3    2393    2392  0.00001.000000  0.0000
CBEAM       3562       3    2392    2391  0.00001.000000  0.0000
CBEAM       3563       3    2391    2390  0.00001.000000  0.0000
CBEAM       3564       3    2390    2389  0.00001.000000  0.0000
CBEAM       3565       3    2389    2388  0.00001.000000  0.0000
CBEAM       3566       3    2388    2387  0.00001.000000  0.0000
CBEAM       3567       3    2387    2386  0.00001.000000  0.0000
CBEAM       3568       3    2386    2385  0.00001.000000  0.0000
CBEAM       3569       3    2385    2384  0.00001.000000  0.0000
CBEAM       3570       3    2384    2383  0.00001.000000  0.0000
CBEAM       3571       3    2383    2382  0.00001.000000  0.0000
CBEAM       3572       3    2382    2381  0.00001.000000  0.0000
CBEAM       3573       3    2381    2380  0.00001.000000  0.0000
CBEAM       3574       3    2380    2379  0.00001.000000  0.0000
CBEAM       3575       3    2379    2378  0.00001.000000  0.0000
CBEAM       3576       3    2378    2377  0.00001.000000  0.0000
CBEAM       3577       3    2377    2376  0.00001.000000  0.0000
CBEAM       3578       3    2376    2375  0.00001.000000  0.0000
CBEAM       3579       3    2375    2374  0.00001.000000  0.0000
CBEAM       3580       3    2374    2373  0.00001.000000  0.0000
CBEAM       3581       3    2373    2372  0.00001.000000  0.0000
CBEAM       3582       3    2372    2371  0.00001.000000  0.0000
CBEAM       3583       3    2371    2370  0.00001.000000  0.0000
CBEAM       3584       3    2370    2369  0.00001.000000  0.0000
CBEAM       3585       3    2369    2368  0.00001.000000  0.0000
CBEAM       3586       3    2368    2367  0.00001.000000  0.0000
CBEAM       3587       3    2367    2366  0.00001.000000  0.0000
CBEAM       3588       3    2366    2365  0.00001.000000  0.0000
CBEAM       3589       3    2365    2364  0.00001.000000  0.0000
CBEAM       3590       3    2364    2363  0.00001.000000  0.0000
CBEAM       3591       3    2363    2362  0.00001.000000  0.0000
CBEAM       3592       3    2362    2361  0.00001.000000  0.0000
CBEAM       3593       3    2361    2360  0.00001.000000  0.0000
CBEAM       3594       3    2360    2359  0.00001.000000  0.0000
CBEAM       3595       3    2359    2358  0.00001.000000  0.0000
CBEAM       3596       3    2358    2357  0.00001.000000  0.0000
CBEAM       3597       3    2357    2356  0.00001.000000  0.0000
CBEAM       3598       3    2356    2355  0.00001.000000  0.0000
CBEAM       3599       3    2355    2354  0.00001.000000  0.0000
CBEAM       3600       3    2354    2353  0.00001.000000  0.0000
CBEAM       3601       3    2353    2352  0.00001.000000  0.0000
CBEAM       3602       3    2352    2351  0.00001.000000  0.0000
CBEAM       3603       3    2351    2350  0.00001.000000  0.0000
CBEAM       3604       3    2350    2349  0.00001.000000  0.0000
CBEAM       3605       3    2349    2348  0.00001.000000  0.0000
CBEAM       3606       3    2348    2347  0.00001.000000  0.0000
CBEAM       3607       3    2347    2346  0.00001.000000  0.0000
CBEAM       3608       3    2346    2345  0.00001.000000  0.0000
CBEAM       3609       3    2345    2344  0.00001.000000  0.0000
CBEAM       3610       3    2344    2343  0.00001.000000  0.0000
CBEAM       3611       3    2343    2342  0.00001.000000  0.0000
CBEAM       3612       3    2342    2341  0.00001.000000  0.0000
CBEAM       3613       3    2341    2340  0.00001.000000  0.0000
CBEAM       3614       3    2340    2339  0.00001.000000  0.0000
CBEAM       3615       3    2339    2338  0.00001.000000  0.0000
CBEAM       3616       3    2338    2337  0.00001.000000  0.0000
CBEAM       3617       3    2337    2336  0.00001.000000  0.0000
CBEAM       3618       3    2336    2335  0.00001.000000  0.0000
CBEAM       3619       3    2335    2334  0.00001.000000  0.0000
CBEAM       3620       3    2334    2333  0.00001.000000  0.0000
CBEAM       3621       3    2333    2332  0.00001.000000  0.0000
CBEAM       3622       3    2332    2331  0.00001.000000  0.0000
CBEAM       3623       3    2331    2330  0.00001.000000  0.0000
CBEAM       3624       3    2330    2329  0.00001.000000  0.0000
CBEAM       3625       3    2329    2328  0.00001.000000  0.0000
$*  Mesh Collector: Beam Collector(4)
$*  Mesh: 1d_mesh(4)
CBEAM       3626       4    4839    4838  0.00001.000000  0.0000
CBEAM       3627       4    4838    4837  0.00001.000000  0.0000
CBEAM       3628       4    4837    4836  0.00001.000000  0.0000
CBEAM       3629       4    4836    4835  0.00001.000000  0.0000
CBEAM       3630       4    4835    4834  0.00001.000000  0.0000
CBEAM       3631       4    4834    4833  0.00001.000000  0.0000
CBEAM       3632       4    4833    4832  0.00001.000000  0.0000
CBEAM       3633       4    4832    4831  0.00001.000000  0.0000
CBEAM       3634       4    4831    4830  0.00001.000000  0.0000
CBEAM       3635       4    4830    4829  0.00001.000000  0.0000
CBEAM       3636       4    4829    4828  0.00001.000000  0.0000
CBEAM       3637       4    4828    4827  0.00001.000000  0.0000
CBEAM       3638       4    4827    4826  0.00001.000000  0.0000
CBEAM       3639       4    4826    4825  0.00001.000000  0.0000
CBEAM       3640       4    4825    4824  0.00001.000000  0.0000
CBEAM       3641       4    4824    4823  0.00001.000000  0.0000
CBEAM       3642       4    4823    4822  0.00001.000000  0.0000
CBEAM       3643       4    4822    4821  0.00001.000000  0.0000
CBEAM       3644       4    4821    4820  0.00001.000000  0.0000
CBEAM       3645       4    4820    4819  0.00001.000000  0.0000
CBEAM       3646       4    4819    4818  0.00001.000000  0.0000
CBEAM       3647       4    4818    4817  0.00001.000000  0.0000
CBEAM       3648       4    4817    4816  0.00001.000000  0.0000
CBEAM       3649       4    4816    4815  0.00001.000000  0.0000
CBEAM       3650       4    4815    4814  0.00001.000000  0.0000
CBEAM       3651       4    4814    4813  0.00001.000000  0.0000
CBEAM       3652       4    4813    4812  0.00001.000000  0.0000
CBEAM       3653       4    4812    4811  0.00001.000000  0.0000
CBEAM       3654       4    4811    4810  0.00001.000000  0.0000
CBEAM       3655       4    4810    4809  0.00001.000000  0.0000
CBEAM       3656       4    4809    4808  0.00001.000000  0.0000
CBEAM       3657       4    4808    4807  0.00001.000000  0.0000
CBEAM       3658       4    4807    4806  0.00001.000000  0.0000
CBEAM       3659       4    4806    4805  0.00001.000000  0.0000
CBEAM       3660       4    4805    4804  0.00001.000000  0.0000
CBEAM       3661       4    4804    4803  0.00001.000000  0.0000
CBEAM       3662       4    4803    4802  0.00001.000000  0.0000
CBEAM       3663       4    4802    4801  0.00001.000000  0.0000
CBEAM       3664       4    4801    4800  0.00001.000000  0.0000
CBEAM       3665       4    4800    4799  0.00001.000000  0.0000
CBEAM       3666       4    4799    4798  0.00001.000000  0.0000
CBEAM       3667       4    4798    4797  0.00001.000000  0.0000
CBEAM       3668       4    4797    4796  0.00001.000000  0.0000
CBEAM       3669       4    4796    4795  0.00001.000000  0.0000
CBEAM       3670       4    4795    4794  0.00001.000000  0.0000
CBEAM       3671       4    4794    4793  0.00001.000000  0.0000
CBEAM       3672       4    4793    4792  0.00001.000000  0.0000
CBEAM       3673       4    4792    4791  0.00001.000000  0.0000
CBEAM       3674       4    4791    4790  0.00001.000000  0.0000
CBEAM       3675       4    4790    4789  0.00001.000000  0.0000
CBEAM       3676       4    4789    4788  0.00001.000000  0.0000
CBEAM       3677       4    4788    4787  0.00001.000000  0.0000
CBEAM       3678       4    4787    4786  0.00001.000000  0.0000
CBEAM       3679       4    4786    4785  0.00001.000000  0.0000
CBEAM       3680       4    4785    4784  0.00001.000000  0.0000
CBEAM       3681       4    4784    4783  0.00001.000000  0.0000
CBEAM       3682       4    4783    4782  0.00001.000000  0.0000
CBEAM       3683       4    4782    4781  0.00001.000000  0.0000
CBEAM       3684       4    4781    4780  0.00001.000000  0.0000
CBEAM       3685       4    4780    4779  0.00001.000000  0.0000
CBEAM       3686       4    4779    4778  0.00001.000000  0.0000
CBEAM       3687       4    4778    4777  0.00001.000000  0.0000
CBEAM       3688       4    4777    4776  0.00001.000000  0.0000
CBEAM       3689       4    4776    4775  0.00001.000000  0.0000
CBEAM       3690       4    4775    4774  0.00001.000000  0.0000
CBEAM       3691       4    4774    4773  0.00001.000000  0.0000
CBEAM       3692       4    4773    4772  0.00001.000000  0.0000
CBEAM       3693       4    4772    4771  0.00001.000000  0.0000
CBEAM       3694       4    4771    4770  0.00001.000000  0.0000
CBEAM       3695       4    4770    4769  0.00001.000000  0.0000
CBEAM       3696       4    4769    4768  0.00001.000000  0.0000
CBEAM       3697       4    4768    4767  0.00001.000000  0.0000
CBEAM       3698       4    4767    4766  0.00001.000000  0.0000
CBEAM       3699       4    4766    4765  0.00001.000000  0.0000
CBEAM       3700       4    4765    4764  0.00001.000000  0.0000
CBEAM       3701       4    4764    4763  0.00001.000000  0.0000
CBEAM       3702       4    4763    4762  0.00001.000000  0.0000
CBEAM       3703       4    4762    4761  0.00001.000000  0.0000
CBEAM       3704       4    4761    4760  0.00001.000000  0.0000
CBEAM       3705       4    4760    4759  0.00001.000000  0.0000
CBEAM       3706       4    4759    4758  0.00001.000000  0.0000
CBEAM       3707       4    4758    4757  0.00001.000000  0.0000
CBEAM       3708       4    4757    4756  0.00001.000000  0.0000
CBEAM       3709       4    4756    4755  0.00001.000000  0.0000
CBEAM       3710       4    4755    4754  0.00001.000000  0.0000
CBEAM       3711       4    4754    4753  0.00001.000000  0.0000
CBEAM       3712       4    4753    4752  0.00001.000000  0.0000
CBEAM       3713       4    4752    4751  0.00001.000000  0.0000
CBEAM       3714       4    4751    4750  0.00001.000000  0.0000
CBEAM       3715       4    4750    4749  0.00001.000000  0.0000
CBEAM       3716       4    4749    4748  0.00001.000000  0.0000
CBEAM       3717       4    4748    4747  0.00001.000000  0.0000
CBEAM       3718       4    4747    4746  0.00001.000000  0.0000
CBEAM       3719       4    4746    4745  0.00001.000000  0.0000
CBEAM       3720       4    4745    4744  0.00001.000000  0.0000
CBEAM       3721       4    4744    4743  0.00001.000000  0.0000
CBEAM       3722       4    4743    4742  0.00001.000000  0.0000
CBEAM       3723       4    4742    4741  0.00001.000000  0.0000
CBEAM       3724       4    4741    4740  0.00001.000000  0.0000
CBEAM       3725       4    4740    4739  0.00001.000000  0.0000
CBEAM       3726       4    4739    4738  0.00001.000000  0.0000
CBEAM       3727       4    4738    4737  0.00001.000000  0.0000
CBEAM       3728       4    4737    4736  0.00001.000000  0.0000
CBEAM       3729       4    4736    4735  0.00001.000000  0.0000
CBEAM       3730       4    4735    4734  0.00001.000000  0.0000
CBEAM       3731       4    4734    4733  0.00001.000000  0.0000
CBEAM       3732       4    4733    4732  0.00001.000000  0.0000
CBEAM       3733       4    4732    4731  0.00001.000000  0.0000
CBEAM       3734       4    4731    4730  0.00001.000000  0.0000
CBEAM       3735       4    4730    4729  0.00001.000000  0.0000
CBEAM       3736       4    4729    4728  0.00001.000000  0.0000
CBEAM       3737       4    4728    4727  0.00001.000000  0.0000
CBEAM       3738       4    4727    4726  0.00001.000000  0.0000
CBEAM       3739       4    4726    4725  0.00001.000000  0.0000
CBEAM       3740       4    4725    4724  0.00001.000000  0.0000
CBEAM       3741       4    4724    4723  0.00001.000000  0.0000
CBEAM       3742       4    4723    4722  0.00001.000000  0.0000
CBEAM       3743       4    4722    4721  0.00001.000000  0.0000
CBEAM       3744       4    4721    4720  0.00001.000000  0.0000
CBEAM       3745       4    4720    4719  0.00001.000000  0.0000
CBEAM       3746       4    4719    4718  0.00001.000000  0.0000
CBEAM       3747       4    4718    4717  0.00001.000000  0.0000
CBEAM       3748       4    4717    4716  0.00001.000000  0.0000
CBEAM       3749       4    4716    4715  0.00001.000000  0.0000
CBEAM       3750       4    4715    4714  0.00001.000000  0.0000
CBEAM       3751       4    4714    4713  0.00001.000000  0.0000
CBEAM       3752       4    4713    4712  0.00001.000000  0.0000
CBEAM       3753       4    4712    4711  0.00001.000000  0.0000
CBEAM       3754       4    4711    4710  0.00001.000000  0.0000
CBEAM       3755       4    4710    4709  0.00001.000000  0.0000
CBEAM       3756       4    4709    4708  0.00001.000000  0.0000
CBEAM       3757       4    4708    4707  0.00001.000000  0.0000
CBEAM       3758       4    4707    4706  0.00001.000000  0.0000
CBEAM       3759       4    4706    4705  0.00001.000000  0.0000
CBEAM       3760       4    4705    4704  0.00001.000000  0.0000
CBEAM       3761       4    4704    4703  0.00001.000000  0.0000
CBEAM       3762       4    4703    4702  0.00001.000000  0.0000
CBEAM       3763       4    4702    4701  0.00001.000000  0.0000
CBEAM       3764       4    4701    4700  0.00001.000000  0.0000
CBEAM       3765       4    4700    4699  0.00001.000000  0.0000
CBEAM       3766       4    4699    4698  0.00001.000000  0.0000
CBEAM       3767       4    4698    4697  0.00001.000000  0.0000
CBEAM       3768       4    4697    4696  0.00001.000000  0.0000
CBEAM       3769       4    4696    4695  0.00001.000000  0.0000
CBEAM       3770       4    4695    4694  0.00001.000000  0.0000
CBEAM       3771       4    4694    4693  0.00001.000000  0.0000
CBEAM       3772       4    4693    4692  0.00001.000000  0.0000
CBEAM       3773       4    4692    4691  0.00001.000000  0.0000
CBEAM       3774       4    4691    4690  0.00001.000000  0.0000
CBEAM       3775       4    4690    4689  0.00001.000000  0.0000
CBEAM       3776       4    4689    4688  0.00001.000000  0.0000
CBEAM       3777       4    4688    4687  0.00001.000000  0.0000
CBEAM       3778       4    4687    4686  0.00001.000000  0.0000
CBEAM       3779       4    4686    4685  0.00001.000000  0.0000
CBEAM       3780       4    4685    4684  0.00001.000000  0.0000
CBEAM       3781       4    4684    4683  0.00001.000000  0.0000
CBEAM       3782       4    4683    4682  0.00001.000000  0.0000
CBEAM       3783       4    4682    4681  0.00001.000000  0.0000
CBEAM       3784       4    4681    4680  0.00001.000000  0.0000
CBEAM       3785       4    4680    4679  0.00001.000000  0.0000
CBEAM       3786       4    4679    4678  0.00001.000000  0.0000
CBEAM       3787       4    4678    4677  0.00001.000000  0.0000
CBEAM       3788       4    4677    4676  0.00001.000000  0.0000
CBEAM       3789       4    4676    4675  0.00001.000000  0.0000
CBEAM       3790       4    4675    4674  0.00001.000000  0.0000
CBEAM       3791       4    4674    4673  0.00001.000000  0.0000
CBEAM       3792       4    4673    4672  0.00001.000000  0.0000
CBEAM       3793       4    4672    4671  0.00001.000000  0.0000
CBEAM       3794       4    4671    4670  0.00001.000000  0.0000
CBEAM       3795       4    4670    4669  0.00001.000000  0.0000
CBEAM       3796       4    4669    4668  0.00001.000000  0.0000
CBEAM       3797       4    4668    4667  0.00001.000000  0.0000
CBEAM       3798       4    4667    4666  0.00001.000000  0.0000
CBEAM       3799       4    4666    4665  0.00001.000000  0.0000
CBEAM       3800       4    4665    4664  0.00001.000000  0.0000
CBEAM       3801       4    4664    4663  0.00001.000000  0.0000
CBEAM       3802       4    4663    4662  0.00001.000000  0.0000
CBEAM       3803       4    4662    4661  0.00001.000000  0.0000
CBEAM       3804       4    4661    4660  0.00001.000000  0.0000
CBEAM       3805       4    4660    4659  0.00001.000000  0.0000
CBEAM       3806       4    4659    4658  0.00001.000000  0.0000
CBEAM       3807       4    4658    4657  0.00001.000000  0.0000
CBEAM       3808       4    4657    4656  0.00001.000000  0.0000
CBEAM       3809       4    4656    4655  0.00001.000000  0.0000
CBEAM       3810       4    4655    4654  0.00001.000000  0.0000
CBEAM       3811       4    4654    4653  0.00001.000000  0.0000
CBEAM       3812       4    4653    4652  0.00001.000000  0.0000
CBEAM       3813       4    4652    4651  0.00001.000000  0.0000
CBEAM       3814       4    4651    4650  0.00001.000000  0.0000
CBEAM       3815       4    4650    4649  0.00001.000000  0.0000
CBEAM       3816       4    4649    4648  0.00001.000000  0.0000
CBEAM       3817       4    4648    4647  0.00001.000000  0.0000
CBEAM       3818       4    4647    4646  0.00001.000000  0.0000
CBEAM       3819       4    4646    4645  0.00001.000000  0.0000
CBEAM       3820       4    4645    4644  0.00001.000000  0.0000
CBEAM       3821       4    4644    4643  0.00001.000000  0.0000
CBEAM       3822       4    4643    4642  0.00001.000000  0.0000
CBEAM       3823       4    4642    4641  0.00001.000000  0.0000
CBEAM       3824       4    4641    4640  0.00001.000000  0.0000
CBEAM       3825       4    4640    4639  0.00001.000000  0.0000
CBEAM       3826       4    4639    4638  0.00001.000000  0.0000
CBEAM       3827       4    4638    4637  0.00001.000000  0.0000
CBEAM       3828       4    4637    4636  0.00001.000000  0.0000
CBEAM       3829       4    4636    4635  0.00001.000000  0.0000
CBEAM       3830       4    4635    4634  0.00001.000000  0.0000
CBEAM       3831       4    4634    4633  0.00001.000000  0.0000
CBEAM       3832       4    4633    4632  0.00001.000000  0.0000
CBEAM       3833       4    4632    4631  0.00001.000000  0.0000
CBEAM       3834       4    4631    4630  0.00001.000000  0.0000
CBEAM       3835       4    4630    4629  0.00001.000000  0.0000
CBEAM       3836       4    4629    4628  0.00001.000000  0.0000
CBEAM       3837       4    4628    4627  0.00001.000000  0.0000
CBEAM       3838       4    4627    4626  0.00001.000000  0.0000
CBEAM       3839       4    4626    4625  0.00001.000000  0.0000
CBEAM       3840       4    4625    4624  0.00001.000000  0.0000
CBEAM       3841       4    4624    4623  0.00001.000000  0.0000
CBEAM       3842       4    4623    4622  0.00001.000000  0.0000
CBEAM       3843       4    4622    4621  0.00001.000000  0.0000
CBEAM       3844       4    4621    4620  0.00001.000000  0.0000
CBEAM       3845       4    4620    4619  0.00001.000000  0.0000
CBEAM       3846       4    4619    4618  0.00001.000000  0.0000
CBEAM       3847       4    4618    4617  0.00001.000000  0.0000
CBEAM       3848       4    4617    4616  0.00001.000000  0.0000
CBEAM       3849       4    4616    4615  0.00001.000000  0.0000
CBEAM       3850       4    4615    4614  0.00001.000000  0.0000
CBEAM       3851       4    4614    4613  0.00001.000000  0.0000
CBEAM       3852       4    4613    4612  0.00001.000000  0.0000
CBEAM       3853       4    4612    4611  0.00001.000000  0.0000
CBEAM       3854       4    4611    4610  0.00001.000000  0.0000
CBEAM       3855       4    4610    4609  0.00001.000000  0.0000
CBEAM       3856       4    4609    4608  0.00001.000000  0.0000
CBEAM       3857       4    4608    4607  0.00001.000000  0.0000
CBEAM       3858       4    4607    4606  0.00001.000000  0.0000
CBEAM       3859       4    4606    4605  0.00001.000000  0.0000
CBEAM       3860       4    4605    4604  0.00001.000000  0.0000
CBEAM       3861       4    4604    4603  0.00001.000000  0.0000
CBEAM       3862       4    4603    4602  0.00001.000000  0.0000
CBEAM       3863       4    4602    4601  0.00001.000000  0.0000
CBEAM       3864       4    4601    4600  0.00001.000000  0.0000
CBEAM       3865       4    4600    4599  0.00001.000000  0.0000
CBEAM       3866       4    4599    4598  0.00001.000000  0.0000
CBEAM       3867       4    4598    4597  0.00001.000000  0.0000
CBEAM       3868       4    4597    4596  0.00001.000000  0.0000
CBEAM       3869       4    4596    4595  0.00001.000000  0.0000
CBEAM       3870       4    4595    4594  0.00001.000000  0.0000
CBEAM       3871       4    4594    4593  0.00001.000000  0.0000
CBEAM       3872       4    4593    4592  0.00001.000000  0.0000
CBEAM       3873       4    4592    4591  0.00001.000000  0.0000
CBEAM       3874       4    4591    4590  0.00001.000000  0.0000
CBEAM       3875       4    4590    4589  0.00001.000000  0.0000
CBEAM       3876       4    4589    4588  0.00001.000000  0.0000
CBEAM       3877       4    4588    4587  0.00001.000000  0.0000
CBEAM       3878       4    4587    4586  0.00001.000000  0.0000
CBEAM       3879       4    4586    4585  0.00001.000000  0.0000
CBEAM       3880       4    4585    4584  0.00001.000000  0.0000
CBEAM       3881       4    4584    4583  0.00001.000000  0.0000
CBEAM       3882       4    4583    4582  0.00001.000000  0.0000
CBEAM       3883       4    4582    4581  0.00001.000000  0.0000
CBEAM       3884       4    4581    4580  0.00001.000000  0.0000
CBEAM       3885       4    4580    4579  0.00001.000000  0.0000
CBEAM       3886       4    4579    4578  0.00001.000000  0.0000
CBEAM       3887       4    4578    4577  0.00001.000000  0.0000
CBEAM       3888       4    4577    4576  0.00001.000000  0.0000
CBEAM       3889       4    4576    4575  0.00001.000000  0.0000
CBEAM       3890       4    4575    4574  0.00001.000000  0.0000
CBEAM       3891       4    4574    4573  0.00001.000000  0.0000
CBEAM       3892       4    4573    4572  0.00001.000000  0.0000
CBEAM       3893       4    4572    4571  0.00001.000000  0.0000
CBEAM       3894       4    4571    4570  0.00001.000000  0.0000
CBEAM       3895       4    4570    4569  0.00001.000000  0.0000
CBEAM       3896       4    4569    4568  0.00001.000000  0.0000
CBEAM       3897       4    4568    4567  0.00001.000000  0.0000
CBEAM       3898       4    4567    4566  0.00001.000000  0.0000
CBEAM       3899       4    4566    4565  0.00001.000000  0.0000
CBEAM       3900       4    4565    4564  0.00001.000000  0.0000
CBEAM       3901       4    4564    4563  0.00001.000000  0.0000
CBEAM       3902       4    4563    4562  0.00001.000000  0.0000
CBEAM       3903       4    4562    4561  0.00001.000000  0.0000
CBEAM       3904       4    4561    4560  0.00001.000000  0.0000
CBEAM       3905       4    4560    4559  0.00001.000000  0.0000
CBEAM       3906       4    4559    4558  0.00001.000000  0.0000
CBEAM       3907       4    4558    4557  0.00001.000000  0.0000
CBEAM       3908       4    4557    4556  0.00001.000000  0.0000
CBEAM       3909       4    4556    4555  0.00001.000000  0.0000
CBEAM       3910       4    4555    4554  0.00001.000000  0.0000
CBEAM       3911       4    4554    4553  0.00001.000000  0.0000
CBEAM       3912       4    4553    4552  0.00001.000000  0.0000
CBEAM       3913       4    4552    4551  0.00001.000000  0.0000
CBEAM       3914       4    4551    4550  0.00001.000000  0.0000
CBEAM       3915       4    4550    4549  0.00001.000000  0.0000
CBEAM       3916       4    4549    4548  0.00001.000000  0.0000
CBEAM       3917       4    4548    4547  0.00001.000000  0.0000
CBEAM       3918       4    4547    4546  0.00001.000000  0.0000
CBEAM       3919       4    4546    4545  0.00001.000000  0.0000
CBEAM       3920       4    4545    4544  0.00001.000000  0.0000
CBEAM       3921       4    4544    4543  0.00001.000000  0.0000
CBEAM       3922       4    4543    4542  0.00001.000000  0.0000
CBEAM       3923       4    4542    4541  0.00001.000000  0.0000
CBEAM       3924       4    4541    4540  0.00001.000000  0.0000
CBEAM       3925       4    4540    4539  0.00001.000000  0.0000
CBEAM       3926       4    4539    4538  0.00001.000000  0.0000
CBEAM       3927       4    4538    4537  0.00001.000000  0.0000
CBEAM       3928       4    4537    4536  0.00001.000000  0.0000
CBEAM       3929       4    4536    4535  0.00001.000000  0.0000
CBEAM       3930       4    4535    4534  0.00001.000000  0.0000
CBEAM       3931       4    4534    4533  0.00001.000000  0.0000
CBEAM       3932       4    4533    4532  0.00001.000000  0.0000
CBEAM       3933       4    4532    4531  0.00001.000000  0.0000
CBEAM       3934       4    4531    4530  0.00001.000000  0.0000
CBEAM       3935       4    4530    4529  0.00001.000000  0.0000
CBEAM       3936       4    4529    4528  0.00001.000000  0.0000
CBEAM       3937       4    4528    4527  0.00001.000000  0.0000
CBEAM       3938       4    4527    4526  0.00001.000000  0.0000
CBEAM       3939       4    4526    4525  0.00001.000000  0.0000
CBEAM       3940       4    4525    4524  0.00001.000000  0.0000
CBEAM       3941       4    4524    4523  0.00001.000000  0.0000
CBEAM       3942       4    4523    4522  0.00001.000000  0.0000
CBEAM       3943       4    4522    4521  0.00001.000000  0.0000
CBEAM       3944       4    4521    4520  0.00001.000000  0.0000
CBEAM       3945       4    4520    4519  0.00001.000000  0.0000
CBEAM       3946       4    4519    4518  0.00001.000000  0.0000
CBEAM       3947       4    4518    4517  0.00001.000000  0.0000
CBEAM       3948       4    4517    4516  0.00001.000000  0.0000
CBEAM       3949       4    4516    4515  0.00001.000000  0.0000
CBEAM       3950       4    4515    4514  0.00001.000000  0.0000
CBEAM       3951       4    4514    4513  0.00001.000000  0.0000
CBEAM       3952       4    4513    4512  0.00001.000000  0.0000
CBEAM       3953       4    4512    4511  0.00001.000000  0.0000
CBEAM       3954       4    4511    4510  0.00001.000000  0.0000
CBEAM       3955       4    4510    4509  0.00001.000000  0.0000
CBEAM       3956       4    4509    4508  0.00001.000000  0.0000
CBEAM       3957       4    4508    4507  0.00001.000000  0.0000
CBEAM       3958       4    4507    4506  0.00001.000000  0.0000
CBEAM       3959       4    4506    4505  0.00001.000000  0.0000
CBEAM       3960       4    4505    4504  0.00001.000000  0.0000
CBEAM       3961       4    4504    4503  0.00001.000000  0.0000
CBEAM       3962       4    4503    4502  0.00001.000000  0.0000
CBEAM       3963       4    4502    4501  0.00001.000000  0.0000
CBEAM       3964       4    4501    4500  0.00001.000000  0.0000
CBEAM       3965       4    4500    4499  0.00001.000000  0.0000
CBEAM       3966       4    4499    4498  0.00001.000000  0.0000
CBEAM       3967       4    4498    4497  0.00001.000000  0.0000
CBEAM       3968       4    4497    4496  0.00001.000000  0.0000
CBEAM       3969       4    4496    4495  0.00001.000000  0.0000
CBEAM       3970       4    4495    4494  0.00001.000000  0.0000
CBEAM       3971       4    4494    4493  0.00001.000000  0.0000
CBEAM       3972       4    4493    4492  0.00001.000000  0.0000
CBEAM       3973       4    4492    4491  0.00001.000000  0.0000
CBEAM       3974       4    4491    4490  0.00001.000000  0.0000
CBEAM       3975       4    4490    4489  0.00001.000000  0.0000
CBEAM       3976       4    4489    4488  0.00001.000000  0.0000
CBEAM       3977       4    4488    4487  0.00001.000000  0.0000
CBEAM       3978       4    4487    4486  0.00001.000000  0.0000
CBEAM       3979       4    4486    4485  0.00001.000000  0.0000
CBEAM       3980       4    4485    4484  0.00001.000000  0.0000
CBEAM       3981       4    4484    4483  0.00001.000000  0.0000
CBEAM       3982       4    4483    4482  0.00001.000000  0.0000
CBEAM       3983       4    4482    4481  0.00001.000000  0.0000
CBEAM       3984       4    4481    4480  0.00001.000000  0.0000
CBEAM       3985       4    4480    4479  0.00001.000000  0.0000
CBEAM       3986       4    4479    4478  0.00001.000000  0.0000
CBEAM       3987       4    4478    4477  0.00001.000000  0.0000
CBEAM       3988       4    4477    4476  0.00001.000000  0.0000
CBEAM       3989       4    4476    4475  0.00001.000000  0.0000
CBEAM       3990       4    4475    4474  0.00001.000000  0.0000
CBEAM       3991       4    4474    4473  0.00001.000000  0.0000
CBEAM       3992       4    4473    4472  0.00001.000000  0.0000
CBEAM       3993       4    4472    4471  0.00001.000000  0.0000
CBEAM       3994       4    4471    4470  0.00001.000000  0.0000
CBEAM       3995       4    4470    4469  0.00001.000000  0.0000
CBEAM       3996       4    4469    4468  0.00001.000000  0.0000
CBEAM       3997       4    4468    4467  0.00001.000000  0.0000
CBEAM       3998       4    4467    4466  0.00001.000000  0.0000
CBEAM       3999       4    4466    4465  0.00001.000000  0.0000
CBEAM       4000       4    4465    4464  0.00001.000000  0.0000
CBEAM       4001       4    4464    4463  0.00001.000000  0.0000
CBEAM       4002       4    4463    4462  0.00001.000000  0.0000
CBEAM       4003       4    4462    4461  0.00001.000000  0.0000
CBEAM       4004       4    4461    4460  0.00001.000000  0.0000
CBEAM       4005       4    4460    4459  0.00001.000000  0.0000
CBEAM       4006       4    4459    4458  0.00001.000000  0.0000
CBEAM       4007       4    4458    4457  0.00001.000000  0.0000
CBEAM       4008       4    4457    4456  0.00001.000000  0.0000
CBEAM       4009       4    4456    4455  0.00001.000000  0.0000
CBEAM       4010       4    4455    4454  0.00001.000000  0.0000
CBEAM       4011       4    4454    4453  0.00001.000000  0.0000
CBEAM       4012       4    4453    4452  0.00001.000000  0.0000
CBEAM       4013       4    4452    4451  0.00001.000000  0.0000
CBEAM       4014       4    4451    4450  0.00001.000000  0.0000
CBEAM       4015       4    4450    4449  0.00001.000000  0.0000
CBEAM       4016       4    4449    4448  0.00001.000000  0.0000
CBEAM       4017       4    4448    4447  0.00001.000000  0.0000
CBEAM       4018       4    4447    4446  0.00001.000000  0.0000
CBEAM       4019       4    4446    4445  0.00001.000000  0.0000
CBEAM       4020       4    4445    4444  0.00001.000000  0.0000
CBEAM       4021       4    4444    4443  0.00001.000000  0.0000
CBEAM       4022       4    4443    4442  0.00001.000000  0.0000
CBEAM       4023       4    4442    4441  0.00001.000000  0.0000
CBEAM       4024       4    4441    4440  0.00001.000000  0.0000
CBEAM       4025       4    4440    4439  0.00001.000000  0.0000
CBEAM       4026       4    4439    4438  0.00001.000000  0.0000
CBEAM       4027       4    4438    4437  0.00001.000000  0.0000
CBEAM       4028       4    4437    4436  0.00001.000000  0.0000
CBEAM       4029       4    4436    4435  0.00001.000000  0.0000
CBEAM       4030       4    4435    4434  0.00001.000000  0.0000
CBEAM       4031       4    4434    4433  0.00001.000000  0.0000
CBEAM       4032       4    4433    4432  0.00001.000000  0.0000
CBEAM       4033       4    4432    4431  0.00001.000000  0.0000
CBEAM       4034       4    4431    4430  0.00001.000000  0.0000
CBEAM       4035       4    4430    4429  0.00001.000000  0.0000
CBEAM       4036       4    4429    4428  0.00001.000000  0.0000
CBEAM       4037       4    4428    4427  0.00001.000000  0.0000
CBEAM       4038       4    4427    4426  0.00001.000000  0.0000
CBEAM       4039       4    4426    4425  0.00001.000000  0.0000
CBEAM       4040       4    4425    4424  0.00001.000000  0.0000
CBEAM       4041       4    4424    4423  0.00001.000000  0.0000
CBEAM       4042       4    4423    4422  0.00001.000000  0.0000
CBEAM       4043       4    4422    4421  0.00001.000000  0.0000
CBEAM       4044       4    4421    4420  0.00001.000000  0.0000
CBEAM       4045       4    4420    4419  0.00001.000000  0.0000
CBEAM       4046       4    4419    4418  0.00001.000000  0.0000
CBEAM       4047       4    4418    4417  0.00001.000000  0.0000
CBEAM       4048       4    4417    4416  0.00001.000000  0.0000
CBEAM       4049       4    4416    4415  0.00001.000000  0.0000
CBEAM       4050       4    4415    4414  0.00001.000000  0.0000
CBEAM       4051       4    4414    4413  0.00001.000000  0.0000
CBEAM       4052       4    4413    4412  0.00001.000000  0.0000
CBEAM       4053       4    4412    4411  0.00001.000000  0.0000
CBEAM       4054       4    4411    4410  0.00001.000000  0.0000
CBEAM       4055       4    4410    4409  0.00001.000000  0.0000
CBEAM       4056       4    4409    4408  0.00001.000000  0.0000
CBEAM       4057       4    4408    4407  0.00001.000000  0.0000
CBEAM       4058       4    4407    4406  0.00001.000000  0.0000
CBEAM       4059       4    4406    4405  0.00001.000000  0.0000
CBEAM       4060       4    4405    4404  0.00001.000000  0.0000
CBEAM       4061       4    4404    4403  0.00001.000000  0.0000
CBEAM       4062       4    4403    4402  0.00001.000000  0.0000
CBEAM       4063       4    4402    4401  0.00001.000000  0.0000
CBEAM       4064       4    4401    4400  0.00001.000000  0.0000
CBEAM       4065       4    4400    4399  0.00001.000000  0.0000
CBEAM       4066       4    4399    4398  0.00001.000000  0.0000
CBEAM       4067       4    4398    4397  0.00001.000000  0.0000
CBEAM       4068       4    4397    4396  0.00001.000000  0.0000
CBEAM       4069       4    4396    4395  0.00001.000000  0.0000
CBEAM       4070       4    4395    4394  0.00001.000000  0.0000
CBEAM       4071       4    4394    4393  0.00001.000000  0.0000
CBEAM       4072       4    4393    4392  0.00001.000000  0.0000
CBEAM       4073       4    4392    4391  0.00001.000000  0.0000
CBEAM       4074       4    4391    4390  0.00001.000000  0.0000
CBEAM       4075       4    4390    4389  0.00001.000000  0.0000
CBEAM       4076       4    4389    4388  0.00001.000000  0.0000
CBEAM       4077       4    4388    4387  0.00001.000000  0.0000
CBEAM       4078       4    4387    4386  0.00001.000000  0.0000
CBEAM       4079       4    4386    4385  0.00001.000000  0.0000
CBEAM       4080       4    4385    4384  0.00001.000000  0.0000
CBEAM       4081       4    4384    4383  0.00001.000000  0.0000
CBEAM       4082       4    4383    4382  0.00001.000000  0.0000
CBEAM       4083       4    4382    4381  0.00001.000000  0.0000
CBEAM       4084       4    4381    4380  0.00001.000000  0.0000
CBEAM       4085       4    4380    4379  0.00001.000000  0.0000
CBEAM       4086       4    4379    4378  0.00001.000000  0.0000
CBEAM       4087       4    4378    4377  0.00001.000000  0.0000
CBEAM       4088       4    4377    4376  0.00001.000000  0.0000
CBEAM       4089       4    4376    4375  0.00001.000000  0.0000
CBEAM       4090       4    4375    4374  0.00001.000000  0.0000
CBEAM       4091       4    4374    4373  0.00001.000000  0.0000
CBEAM       4092       4    4373    4372  0.00001.000000  0.0000
CBEAM       4093       4    4372    4371  0.00001.000000  0.0000
CBEAM       4094       4    4371    4370  0.00001.000000  0.0000
CBEAM       4095       4    4370    4369  0.00001.000000  0.0000
CBEAM       4096       4    4369    4368  0.00001.000000  0.0000
CBEAM       4097       4    4368    4367  0.00001.000000  0.0000
CBEAM       4098       4    4367    4366  0.00001.000000  0.0000
CBEAM       4099       4    4366    4365  0.00001.000000  0.0000
CBEAM       4100       4    4365    4364  0.00001.000000  0.0000
CBEAM       4101       4    4364    4363  0.00001.000000  0.0000
CBEAM       4102       4    4363    4362  0.00001.000000  0.0000
CBEAM       4103       4    4362    4361  0.00001.000000  0.0000
CBEAM       4104       4    4361    4360  0.00001.000000  0.0000
CBEAM       4105       4    4360    4359  0.00001.000000  0.0000
CBEAM       4106       4    4359    4358  0.00001.000000  0.0000
CBEAM       4107       4    4358    4357  0.00001.000000  0.0000
CBEAM       4108       4    4357    4356  0.00001.000000  0.0000
CBEAM       4109       4    4356    4355  0.00001.000000  0.0000
CBEAM       4110       4    4355    4354  0.00001.000000  0.0000
CBEAM       4111       4    4354    4353  0.00001.000000  0.0000
CBEAM       4112       4    4353    4352  0.00001.000000  0.0000
CBEAM       4113       4    4352    4351  0.00001.000000  0.0000
CBEAM       4114       4    4351    4350  0.00001.000000  0.0000
CBEAM       4115       4    4350    4349  0.00001.000000  0.0000
CBEAM       4116       4    4349    4348  0.00001.000000  0.0000
CBEAM       4117       4    4348    4347  0.00001.000000  0.0000
CBEAM       4118       4    4347    4346  0.00001.000000  0.0000
CBEAM       4119       4    4346    4345  0.00001.000000  0.0000
CBEAM       4120       4    4345    4344  0.00001.000000  0.0000
CBEAM       4121       4    4344    4343  0.00001.000000  0.0000
CBEAM       4122       4    4343    4342  0.00001.000000  0.0000
CBEAM       4123       4    4342    4341  0.00001.000000  0.0000
CBEAM       4124       4    4341    4340  0.00001.000000  0.0000
CBEAM       4125       4    4340    4339  0.00001.000000  0.0000
CBEAM       4126       4    4339    4338  0.00001.000000  0.0000
CBEAM       4127       4    4338    4337  0.00001.000000  0.0000
CBEAM       4128       4    4337    4336  0.00001.000000  0.0000
CBEAM       4129       4    4336    4335  0.00001.000000  0.0000
CBEAM       4130       4    4335    4334  0.00001.000000  0.0000
CBEAM       4131       4    4334    4333  0.00001.000000  0.0000
CBEAM       4132       4    4333    4332  0.00001.000000  0.0000
CBEAM       4133       4    4332    4331  0.00001.000000  0.0000
CBEAM       4134       4    4331    4330  0.00001.000000  0.0000
CBEAM       4135       4    4330    4329  0.00001.000000  0.0000
CBEAM       4136       4    4329    4328  0.00001.000000  0.0000
CBEAM       4137       4    4328    4327  0.00001.000000  0.0000
CBEAM       4138       4    4327    4326  0.00001.000000  0.0000
CBEAM       4139       4    4326    4325  0.00001.000000  0.0000
CBEAM       4140       4    4325    4324  0.00001.000000  0.0000
CBEAM       4141       4    4324    4323  0.00001.000000  0.0000
CBEAM       4142       4    4323    4322  0.00001.000000  0.0000
CBEAM       4143       4    4322    4321  0.00001.000000  0.0000
CBEAM       4144       4    4321    4320  0.00001.000000  0.0000
CBEAM       4145       4    4320    4319  0.00001.000000  0.0000
CBEAM       4146       4    4319    4318  0.00001.000000  0.0000
CBEAM       4147       4    4318    4317  0.00001.000000  0.0000
CBEAM       4148       4    4317    4316  0.00001.000000  0.0000
CBEAM       4149       4    4316    4315  0.00001.000000  0.0000
CBEAM       4150       4    4315    4314  0.00001.000000  0.0000
CBEAM       4151       4    4314    4313  0.00001.000000  0.0000
CBEAM       4152       4    4313    4312  0.00001.000000  0.0000
CBEAM       4153       4    4312    4311  0.00001.000000  0.0000
CBEAM       4154       4    4311    4310  0.00001.000000  0.0000
CBEAM       4155       4    4310    4309  0.00001.000000  0.0000
CBEAM       4156       4    4309    4308  0.00001.000000  0.0000
CBEAM       4157       4    4308    4307  0.00001.000000  0.0000
CBEAM       4158       4    4307    4306  0.00001.000000  0.0000
CBEAM       4159       4    4306    4305  0.00001.000000  0.0000
CBEAM       4160       4    4305    4304  0.00001.000000  0.0000
CBEAM       4161       4    4304    4303  0.00001.000000  0.0000
CBEAM       4162       4    4303    4302  0.00001.000000  0.0000
CBEAM       4163       4    4302    4301  0.00001.000000  0.0000
CBEAM       4164       4    4301    4300  0.00001.000000  0.0000
CBEAM       4165       4    4300    4299  0.00001.000000  0.0000
CBEAM       4166       4    4299    4298  0.00001.000000  0.0000
CBEAM       4167       4    4298    4297  0.00001.000000  0.0000
CBEAM       4168       4    4297    4296  0.00001.000000  0.0000
CBEAM       4169       4    4296    4295  0.00001.000000  0.0000
CBEAM       4170       4    4295    4294  0.00001.000000  0.0000
CBEAM       4171       4    4294    4293  0.00001.000000  0.0000
CBEAM       4172       4    4293    4292  0.00001.000000  0.0000
CBEAM       4173       4    4292    4291  0.00001.000000  0.0000
CBEAM       4174       4    4291    4290  0.00001.000000  0.0000
CBEAM       4175       4    4290    4289  0.00001.000000  0.0000
CBEAM       4176       4    4289    4288  0.00001.000000  0.0000
CBEAM       4177       4    4288    4287  0.00001.000000  0.0000
CBEAM       4178       4    4287    4286  0.00001.000000  0.0000
CBEAM       4179       4    4286    4285  0.00001.000000  0.0000
CBEAM       4180       4    4285    4284  0.00001.000000  0.0000
CBEAM       4181       4    4284    4283  0.00001.000000  0.0000
CBEAM       4182       4    4283    4282  0.00001.000000  0.0000
CBEAM       4183       4    4282    4281  0.00001.000000  0.0000
CBEAM       4184       4    4281    4280  0.00001.000000  0.0000
CBEAM       4185       4    4280    4279  0.00001.000000  0.0000
CBEAM       4186       4    4279    4278  0.00001.000000  0.0000
CBEAM       4187       4    4278    4277  0.00001.000000  0.0000
CBEAM       4188       4    4277    4276  0.00001.000000  0.0000
CBEAM       4189       4    4276    4275  0.00001.000000  0.0000
CBEAM       4190       4    4275    4274  0.00001.000000  0.0000
CBEAM       4191       4    4274    4273  0.00001.000000  0.0000
CBEAM       4192       4    4273    4272  0.00001.000000  0.0000
CBEAM       4193       4    4272    4271  0.00001.000000  0.0000
CBEAM       4194       4    4271    4270  0.00001.000000  0.0000
CBEAM       4195       4    4270    4269  0.00001.000000  0.0000
CBEAM       4196       4    4269    4268  0.00001.000000  0.0000
CBEAM       4197       4    4268    4267  0.00001.000000  0.0000
CBEAM       4198       4    4267    4266  0.00001.000000  0.0000
CBEAM       4199       4    4266    4265  0.00001.000000  0.0000
CBEAM       4200       4    4265    4264  0.00001.000000  0.0000
CBEAM       4201       4    4264    4263  0.00001.000000  0.0000
CBEAM       4202       4    4263    4262  0.00001.000000  0.0000
CBEAM       4203       4    4262    4261  0.00001.000000  0.0000
CBEAM       4204       4    4261    4260  0.00001.000000  0.0000
CBEAM       4205       4    4260    4259  0.00001.000000  0.0000
CBEAM       4206       4    4259    4258  0.00001.000000  0.0000
CBEAM       4207       4    4258    4257  0.00001.000000  0.0000
CBEAM       4208       4    4257    4256  0.00001.000000  0.0000
CBEAM       4209       4    4256    4255  0.00001.000000  0.0000
CBEAM       4210       4    4255    4254  0.00001.000000  0.0000
CBEAM       4211       4    4254    4253  0.00001.000000  0.0000
CBEAM       4212       4    4253    4252  0.00001.000000  0.0000
CBEAM       4213       4    4252    4251  0.00001.000000  0.0000
CBEAM       4214       4    4251    4250  0.00001.000000  0.0000
CBEAM       4215       4    4250    4249  0.00001.000000  0.0000
CBEAM       4216       4    4249    4248  0.00001.000000  0.0000
CBEAM       4217       4    4248    4247  0.00001.000000  0.0000
CBEAM       4218       4    4247    4246  0.00001.000000  0.0000
CBEAM       4219       4    4246    4245  0.00001.000000  0.0000
CBEAM       4220       4    4245    4244  0.00001.000000  0.0000
CBEAM       4221       4    4244    4243  0.00001.000000  0.0000
CBEAM       4222       4    4243    4242  0.00001.000000  0.0000
CBEAM       4223       4    4242    4241  0.00001.000000  0.0000
CBEAM       4224       4    4241    4240  0.00001.000000  0.0000
CBEAM       4225       4    4240    4239  0.00001.000000  0.0000
CBEAM       4226       4    4239    4238  0.00001.000000  0.0000
CBEAM       4227       4    4238    4237  0.00001.000000  0.0000
CBEAM       4228       4    4237    4236  0.00001.000000  0.0000
CBEAM       4229       4    4236    4235  0.00001.000000  0.0000
CBEAM       4230       4    4235    4234  0.00001.000000  0.0000
CBEAM       4231       4    4234    4233  0.00001.000000  0.0000
CBEAM       4232       4    4233    4232  0.00001.000000  0.0000
CBEAM       4233       4    4232    4231  0.00001.000000  0.0000
CBEAM       4234       4    4231    4230  0.00001.000000  0.0000
CBEAM       4235       4    4230    4229  0.00001.000000  0.0000
CBEAM       4236       4    4229    4228  0.00001.000000  0.0000
CBEAM       4237       4    4228    4227  0.00001.000000  0.0000
CBEAM       4238       4    4227    4226  0.00001.000000  0.0000
CBEAM       4239       4    4226    4225  0.00001.000000  0.0000
CBEAM       4240       4    4225    4224  0.00001.000000  0.0000
CBEAM       4241       4    4224    4223  0.00001.000000  0.0000
CBEAM       4242       4    4223    4222  0.00001.000000  0.0000
CBEAM       4243       4    4222    4221  0.00001.000000  0.0000
CBEAM       4244       4    4221    4220  0.00001.000000  0.0000
CBEAM       4245       4    4220    4219  0.00001.000000  0.0000
CBEAM       4246       4    4219    4218  0.00001.000000  0.0000
CBEAM       4247       4    4218    4217  0.00001.000000  0.0000
CBEAM       4248       4    4217    4216  0.00001.000000  0.0000
CBEAM       4249       4    4216    4215  0.00001.000000  0.0000
CBEAM       4250       4    4215    4214  0.00001.000000  0.0000
CBEAM       4251       4    4214    4213  0.00001.000000  0.0000
CBEAM       4252       4    4213    4212  0.00001.000000  0.0000
CBEAM       4253       4    4212    4211  0.00001.000000  0.0000
CBEAM       4254       4    4211    4210  0.00001.000000  0.0000
CBEAM       4255       4    4210    4209  0.00001.000000  0.0000
CBEAM       4256       4    4209    4208  0.00001.000000  0.0000
CBEAM       4257       4    4208    4207  0.00001.000000  0.0000
CBEAM       4258       4    4207    4206  0.00001.000000  0.0000
CBEAM       4259       4    4206    4205  0.00001.000000  0.0000
CBEAM       4260       4    4205    4204  0.00001.000000  0.0000
CBEAM       4261       4    4204    4203  0.00001.000000  0.0000
CBEAM       4262       4    4203    4202  0.00001.000000  0.0000
CBEAM       4263       4    4202    4201  0.00001.000000  0.0000
CBEAM       4264       4    4201    4200  0.00001.000000  0.0000
CBEAM       4265       4    4200    4199  0.00001.000000  0.0000
CBEAM       4266       4    4199    4198  0.00001.000000  0.0000
CBEAM       4267       4    4198    4197  0.00001.000000  0.0000
CBEAM       4268       4    4197    4196  0.00001.000000  0.0000
CBEAM       4269       4    4196    4195  0.00001.000000  0.0000
CBEAM       4270       4    4195    4194  0.00001.000000  0.0000
CBEAM       4271       4    4194    4193  0.00001.000000  0.0000
CBEAM       4272       4    4193    4192  0.00001.000000  0.0000
CBEAM       4273       4    4192    4191  0.00001.000000  0.0000
CBEAM       4274       4    4191    4190  0.00001.000000  0.0000
CBEAM       4275       4    4190    4189  0.00001.000000  0.0000
CBEAM       4276       4    4189    4188  0.00001.000000  0.0000
CBEAM       4277       4    4188    4187  0.00001.000000  0.0000
CBEAM       4278       4    4187    4186  0.00001.000000  0.0000
CBEAM       4279       4    4186    4185  0.00001.000000  0.0000
CBEAM       4280       4    4185    4184  0.00001.000000  0.0000
CBEAM       4281       4    4184    4183  0.00001.000000  0.0000
CBEAM       4282       4    4183    4182  0.00001.000000  0.0000
CBEAM       4283       4    4182    4181  0.00001.000000  0.0000
CBEAM       4284       4    4181    4180  0.00001.000000  0.0000
CBEAM       4285       4    4180    4179  0.00001.000000  0.0000
CBEAM       4286       4    4179    4178  0.00001.000000  0.0000
CBEAM       4287       4    4178    4177  0.00001.000000  0.0000
CBEAM       4288       4    4177    4176  0.00001.000000  0.0000
CBEAM       4289       4    4176    4175  0.00001.000000  0.0000
CBEAM       4290       4    4175    4174  0.00001.000000  0.0000
CBEAM       4291       4    4174    4173  0.00001.000000  0.0000
CBEAM       4292       4    4173    4172  0.00001.000000  0.0000
CBEAM       4293       4    4172    4171  0.00001.000000  0.0000
CBEAM       4294       4    4171    4170  0.00001.000000  0.0000
CBEAM       4295       4    4170    4169  0.00001.000000  0.0000
CBEAM       4296       4    4169    4168  0.00001.000000  0.0000
CBEAM       4297       4    4168    4167  0.00001.000000  0.0000
CBEAM       4298       4    4167    4166  0.00001.000000  0.0000
CBEAM       4299       4    4166    4165  0.00001.000000  0.0000
CBEAM       4300       4    4165    4164  0.00001.000000  0.0000
CBEAM       4301       4    4164    4163  0.00001.000000  0.0000
CBEAM       4302       4    4163    4162  0.00001.000000  0.0000
CBEAM       4303       4    4162    4161  0.00001.000000  0.0000
CBEAM       4304       4    4161    4160  0.00001.000000  0.0000
CBEAM       4305       4    4160    4159  0.00001.000000  0.0000
CBEAM       4306       4    4159    4158  0.00001.000000  0.0000
CBEAM       4307       4    4158    4157  0.00001.000000  0.0000
CBEAM       4308       4    4157    4156  0.00001.000000  0.0000
CBEAM       4309       4    4156    4155  0.00001.000000  0.0000
CBEAM       4310       4    4155    4154  0.00001.000000  0.0000
CBEAM       4311       4    4154    4153  0.00001.000000  0.0000
CBEAM       4312       4    4153    4152  0.00001.000000  0.0000
CBEAM       4313       4    4152    4151  0.00001.000000  0.0000
CBEAM       4314       4    4151    4150  0.00001.000000  0.0000
CBEAM       4315       4    4150    4149  0.00001.000000  0.0000
CBEAM       4316       4    4149    4148  0.00001.000000  0.0000
CBEAM       4317       4    4148    4147  0.00001.000000  0.0000
CBEAM       4318       4    4147    4146  0.00001.000000  0.0000
CBEAM       4319       4    4146    4145  0.00001.000000  0.0000
CBEAM       4320       4    4145    4144  0.00001.000000  0.0000
CBEAM       4321       4    4144    4143  0.00001.000000  0.0000
CBEAM       4322       4    4143    4142  0.00001.000000  0.0000
CBEAM       4323       4    4142    4141  0.00001.000000  0.0000
CBEAM       4324       4    4141    4140  0.00001.000000  0.0000
CBEAM       4325       4    4140    4139  0.00001.000000  0.0000
CBEAM       4326       4    4139    4138  0.00001.000000  0.0000
CBEAM       4327       4    4138    4137  0.00001.000000  0.0000
CBEAM       4328       4    4137    4136  0.00001.000000  0.0000
CBEAM       4329       4    4136    4135  0.00001.000000  0.0000
CBEAM       4330       4    4135    4134  0.00001.000000  0.0000
CBEAM       4331       4    4134    4133  0.00001.000000  0.0000
CBEAM       4332       4    4133    4132  0.00001.000000  0.0000
CBEAM       4333       4    4132    4131  0.00001.000000  0.0000
CBEAM       4334       4    4131    4130  0.00001.000000  0.0000
CBEAM       4335       4    4130    4129  0.00001.000000  0.0000
CBEAM       4336       4    4129    4128  0.00001.000000  0.0000
CBEAM       4337       4    4128    4127  0.00001.000000  0.0000
CBEAM       4338       4    4127    4126  0.00001.000000  0.0000
CBEAM       4339       4    4126    4125  0.00001.000000  0.0000
CBEAM       4340       4    4125    4124  0.00001.000000  0.0000
CBEAM       4341       4    4124    4123  0.00001.000000  0.0000
CBEAM       4342       4    4123    4122  0.00001.000000  0.0000
CBEAM       4343       4    4122    4121  0.00001.000000  0.0000
CBEAM       4344       4    4121    4120  0.00001.000000  0.0000
CBEAM       4345       4    4120    4119  0.00001.000000  0.0000
CBEAM       4346       4    4119    4118  0.00001.000000  0.0000
CBEAM       4347       4    4118    4117  0.00001.000000  0.0000
CBEAM       4348       4    4117    4116  0.00001.000000  0.0000
CBEAM       4349       4    4116    4115  0.00001.000000  0.0000
CBEAM       4350       4    4115    4114  0.00001.000000  0.0000
CBEAM       4351       4    4114    4113  0.00001.000000  0.0000
CBEAM       4352       4    4113    4112  0.00001.000000  0.0000
CBEAM       4353       4    4112    4111  0.00001.000000  0.0000
CBEAM       4354       4    4111    4110  0.00001.000000  0.0000
CBEAM       4355       4    4110    4109  0.00001.000000  0.0000
CBEAM       4356       4    4109    4108  0.00001.000000  0.0000
CBEAM       4357       4    4108    4107  0.00001.000000  0.0000
CBEAM       4358       4    4107    4106  0.00001.000000  0.0000
CBEAM       4359       4    4106    4105  0.00001.000000  0.0000
CBEAM       4360       4    4105    4104  0.00001.000000  0.0000
CBEAM       4361       4    4104    4103  0.00001.000000  0.0000
CBEAM       4362       4    4103    4102  0.00001.000000  0.0000
CBEAM       4363       4    4102    4101  0.00001.000000  0.0000
CBEAM       4364       4    4101    4100  0.00001.000000  0.0000
CBEAM       4365       4    4100    4099  0.00001.000000  0.0000
CBEAM       4366       4    4099    4098  0.00001.000000  0.0000
CBEAM       4367       4    4098    4097  0.00001.000000  0.0000
CBEAM       4368       4    4097    4096  0.00001.000000  0.0000
CBEAM       4369       4    4096    4095  0.00001.000000  0.0000
CBEAM       4370       4    4095    4094  0.00001.000000  0.0000
CBEAM       4371       4    4094    4093  0.00001.000000  0.0000
CBEAM       4372       4    4093    4092  0.00001.000000  0.0000
CBEAM       4373       4    4092    4091  0.00001.000000  0.0000
CBEAM       4374       4    4091    4090  0.00001.000000  0.0000
CBEAM       4375       4    4090    4089  0.00001.000000  0.0000
CBEAM       4376       4    4089    4088  0.00001.000000  0.0000
CBEAM       4377       4    4088    4087  0.00001.000000  0.0000
CBEAM       4378       4    4087    4086  0.00001.000000  0.0000
CBEAM       4379       4    4086    4085  0.00001.000000  0.0000
CBEAM       4380       4    4085    4084  0.00001.000000  0.0000
CBEAM       4381       4    4084    4083  0.00001.000000  0.0000
CBEAM       4382       4    4083    4082  0.00001.000000  0.0000
CBEAM       4383       4    4082    4081  0.00001.000000  0.0000
CBEAM       4384       4    4081    4080  0.00001.000000  0.0000
CBEAM       4385       4    4080    4079  0.00001.000000  0.0000
CBEAM       4386       4    4079    4078  0.00001.000000  0.0000
CBEAM       4387       4    4078    4077  0.00001.000000  0.0000
CBEAM       4388       4    4077    4076  0.00001.000000  0.0000
CBEAM       4389       4    4076    4075  0.00001.000000  0.0000
CBEAM       4390       4    4075    4074  0.00001.000000  0.0000
CBEAM       4391       4    4074    4073  0.00001.000000  0.0000
CBEAM       4392       4    4073    4072  0.00001.000000  0.0000
CBEAM       4393       4    4072    4071  0.00001.000000  0.0000
CBEAM       4394       4    4071    4070  0.00001.000000  0.0000
CBEAM       4395       4    4070    4069  0.00001.000000  0.0000
CBEAM       4396       4    4069    4068  0.00001.000000  0.0000
CBEAM       4397       4    4068    4067  0.00001.000000  0.0000
CBEAM       4398       4    4067    4066  0.00001.000000  0.0000
CBEAM       4399       4    4066    4065  0.00001.000000  0.0000
CBEAM       4400       4    4065    4064  0.00001.000000  0.0000
CBEAM       4401       4    4064    4063  0.00001.000000  0.0000
CBEAM       4402       4    4063    4062  0.00001.000000  0.0000
CBEAM       4403       4    4062    4061  0.00001.000000  0.0000
CBEAM       4404       4    4061    4060  0.00001.000000  0.0000
CBEAM       4405       4    4060    4059  0.00001.000000  0.0000
CBEAM       4406       4    4059    4058  0.00001.000000  0.0000
CBEAM       4407       4    4058    4057  0.00001.000000  0.0000
CBEAM       4408       4    4057    4056  0.00001.000000  0.0000
CBEAM       4409       4    4056    4055  0.00001.000000  0.0000
CBEAM       4410       4    4055    4054  0.00001.000000  0.0000
CBEAM       4411       4    4054    4053  0.00001.000000  0.0000
CBEAM       4412       4    4053    4052  0.00001.000000  0.0000
CBEAM       4413       4    4052    4051  0.00001.000000  0.0000
CBEAM       4414       4    4051    4050  0.00001.000000  0.0000
CBEAM       4415       4    4050    4049  0.00001.000000  0.0000
CBEAM       4416       4    4049    4048  0.00001.000000  0.0000
CBEAM       4417       4    4048    4047  0.00001.000000  0.0000
CBEAM       4418       4    4047    4046  0.00001.000000  0.0000
CBEAM       4419       4    4046    4045  0.00001.000000  0.0000
CBEAM       4420       4    4045    4044  0.00001.000000  0.0000
CBEAM       4421       4    4044    4043  0.00001.000000  0.0000
CBEAM       4422       4    4043    4042  0.00001.000000  0.0000
CBEAM       4423       4    4042    4041  0.00001.000000  0.0000
CBEAM       4424       4    4041    4040  0.00001.000000  0.0000
CBEAM       4425       4    4040    4039  0.00001.000000  0.0000
CBEAM       4426       4    4039    4038  0.00001.000000  0.0000
CBEAM       4427       4    4038    4037  0.00001.000000  0.0000
CBEAM       4428       4    4037    4036  0.00001.000000  0.0000
CBEAM       4429       4    4036    4035  0.00001.000000  0.0000
CBEAM       4430       4    4035    4034  0.00001.000000  0.0000
CBEAM       4431       4    4034    4033  0.00001.000000  0.0000
CBEAM       4432       4    4033    4032  0.00001.000000  0.0000
CBEAM       4433       4    4032    4031  0.00001.000000  0.0000
CBEAM       4434       4    4031    4030  0.00001.000000  0.0000
CBEAM       4435       4    4030    4029  0.00001.000000  0.0000
CBEAM       4436       4    4029    4028  0.00001.000000  0.0000
CBEAM       4437       4    4028    4027  0.00001.000000  0.0000
CBEAM       4438       4    4027    4026  0.00001.000000  0.0000
CBEAM       4439       4    4026    4025  0.00001.000000  0.0000
CBEAM       4440       4    4025    4024  0.00001.000000  0.0000
CBEAM       4441       4    4024    4023  0.00001.000000  0.0000
CBEAM       4442       4    4023    4022  0.00001.000000  0.0000
CBEAM       4443       4    4022    4021  0.00001.000000  0.0000
CBEAM       4444       4    4021    4020  0.00001.000000  0.0000
CBEAM       4445       4    4020    4019  0.00001.000000  0.0000
CBEAM       4446       4    4019    4018  0.00001.000000  0.0000
CBEAM       4447       4    4018    4017  0.00001.000000  0.0000
CBEAM       4448       4    4017    4016  0.00001.000000  0.0000
CBEAM       4449       4    4016    4015  0.00001.000000  0.0000
CBEAM       4450       4    4015    4014  0.00001.000000  0.0000
CBEAM       4451       4    4014    4013  0.00001.000000  0.0000
CBEAM       4452       4    4013    4012  0.00001.000000  0.0000
CBEAM       4453       4    4012    4011  0.00001.000000  0.0000
CBEAM       4454       4    4011    4010  0.00001.000000  0.0000
CBEAM       4455       4    4010    4009  0.00001.000000  0.0000
CBEAM       4456       4    4009    4008  0.00001.000000  0.0000
CBEAM       4457       4    4008    4007  0.00001.000000  0.0000
CBEAM       4458       4    4007    4006  0.00001.000000  0.0000
CBEAM       4459       4    4006    4005  0.00001.000000  0.0000
CBEAM       4460       4    4005    4004  0.00001.000000  0.0000
CBEAM       4461       4    4004    4003  0.00001.000000  0.0000
CBEAM       4462       4    4003    4002  0.00001.000000  0.0000
CBEAM       4463       4    4002    4001  0.00001.000000  0.0000
CBEAM       4464       4    4001    4000  0.00001.000000  0.0000
CBEAM       4465       4    4000    3999  0.00001.000000  0.0000
CBEAM       4466       4    3999    3998  0.00001.000000  0.0000
CBEAM       4467       4    3998    3997  0.00001.000000  0.0000
CBEAM       4468       4    3997    3996  0.00001.000000  0.0000
CBEAM       4469       4    3996    3995  0.00001.000000  0.0000
CBEAM       4470       4    3995    3994  0.00001.000000  0.0000
CBEAM       4471       4    3994    3993  0.00001.000000  0.0000
CBEAM       4472       4    3993    3992  0.00001.000000  0.0000
CBEAM       4473       4    3992    3991  0.00001.000000  0.0000
CBEAM       4474       4    3991    3990  0.00001.000000  0.0000
CBEAM       4475       4    3990    3989  0.00001.000000  0.0000
CBEAM       4476       4    3989    3988  0.00001.000000  0.0000
CBEAM       4477       4    3988    3987  0.00001.000000  0.0000
CBEAM       4478       4    3987    3986  0.00001.000000  0.0000
CBEAM       4479       4    3986    3985  0.00001.000000  0.0000
CBEAM       4480       4    3985    3984  0.00001.000000  0.0000
CBEAM       4481       4    3984    3983  0.00001.000000  0.0000
CBEAM       4482       4    3983    3982  0.00001.000000  0.0000
CBEAM       4483       4    3982    3981  0.00001.000000  0.0000
CBEAM       4484       4    3981    3980  0.00001.000000  0.0000
CBEAM       4485       4    3980    3979  0.00001.000000  0.0000
CBEAM       4486       4    3979    3978  0.00001.000000  0.0000
CBEAM       4487       4    3978    3977  0.00001.000000  0.0000
CBEAM       4488       4    3977    3976  0.00001.000000  0.0000
CBEAM       4489       4    3976    3975  0.00001.000000  0.0000
CBEAM       4490       4    3975    3974  0.00001.000000  0.0000
CBEAM       4491       4    3974    3973  0.00001.000000  0.0000
CBEAM       4492       4    3973    3972  0.00001.000000  0.0000
CBEAM       4493       4    3972    3971  0.00001.000000  0.0000
CBEAM       4494       4    3971    3970  0.00001.000000  0.0000
CBEAM       4495       4    3970    3969  0.00001.000000  0.0000
CBEAM       4496       4    3969    3968  0.00001.000000  0.0000
CBEAM       4497       4    3968    3967  0.00001.000000  0.0000
CBEAM       4498       4    3967    3966  0.00001.000000  0.0000
CBEAM       4499       4    3966    3965  0.00001.000000  0.0000
CBEAM       4500       4    3965    3964  0.00001.000000  0.0000
CBEAM       4501       4    3964    3963  0.00001.000000  0.0000
CBEAM       4502       4    3963    3962  0.00001.000000  0.0000
CBEAM       4503       4    3962    3961  0.00001.000000  0.0000
CBEAM       4504       4    3961    3960  0.00001.000000  0.0000
CBEAM       4505       4    3960    3959  0.00001.000000  0.0000
CBEAM       4506       4    3959    3958  0.00001.000000  0.0000
CBEAM       4507       4    3958    3957  0.00001.000000  0.0000
CBEAM       4508       4    3957    3956  0.00001.000000  0.0000
CBEAM       4509       4    3956    3955  0.00001.000000  0.0000
CBEAM       4510       4    3955    3954  0.00001.000000  0.0000
CBEAM       4511       4    3954    3953  0.00001.000000  0.0000
CBEAM       4512       4    3953    3952  0.00001.000000  0.0000
CBEAM       4513       4    3952    3951  0.00001.000000  0.0000
CBEAM       4514       4    3951    3950  0.00001.000000  0.0000
CBEAM       4515       4    3950    3949  0.00001.000000  0.0000
CBEAM       4516       4    3949    3948  0.00001.000000  0.0000
CBEAM       4517       4    3948    3947  0.00001.000000  0.0000
CBEAM       4518       4    3947    3946  0.00001.000000  0.0000
CBEAM       4519       4    3946    3945  0.00001.000000  0.0000
CBEAM       4520       4    3945    3944  0.00001.000000  0.0000
CBEAM       4521       4    3944    3943  0.00001.000000  0.0000
CBEAM       4522       4    3943    3942  0.00001.000000  0.0000
CBEAM       4523       4    3942    3941  0.00001.000000  0.0000
CBEAM       4524       4    3941    3940  0.00001.000000  0.0000
CBEAM       4525       4    3940    3939  0.00001.000000  0.0000
CBEAM       4526       4    3939    3938  0.00001.000000  0.0000
CBEAM       4527       4    3938    3937  0.00001.000000  0.0000
CBEAM       4528       4    3937    3936  0.00001.000000  0.0000
CBEAM       4529       4    3936    3935  0.00001.000000  0.0000
CBEAM       4530       4    3935    3934  0.00001.000000  0.0000
CBEAM       4531       4    3934    3933  0.00001.000000  0.0000
CBEAM       4532       4    3933    3932  0.00001.000000  0.0000
CBEAM       4533       4    3932    3931  0.00001.000000  0.0000
CBEAM       4534       4    3931    3930  0.00001.000000  0.0000
CBEAM       4535       4    3930    3929  0.00001.000000  0.0000
CBEAM       4536       4    3929    3928  0.00001.000000  0.0000
CBEAM       4537       4    3928    3927  0.00001.000000  0.0000
CBEAM       4538       4    3927    3926  0.00001.000000  0.0000
CBEAM       4539       4    3926    3925  0.00001.000000  0.0000
CBEAM       4540       4    3925    3924  0.00001.000000  0.0000
CBEAM       4541       4    3924    3923  0.00001.000000  0.0000
CBEAM       4542       4    3923    3922  0.00001.000000  0.0000
CBEAM       4543       4    3922    3921  0.00001.000000  0.0000
CBEAM       4544       4    3921    3920  0.00001.000000  0.0000
CBEAM       4545       4    3920    3919  0.00001.000000  0.0000
CBEAM       4546       4    3919    3918  0.00001.000000  0.0000
CBEAM       4547       4    3918    3917  0.00001.000000  0.0000
CBEAM       4548       4    3917    3916  0.00001.000000  0.0000
CBEAM       4549       4    3916    3915  0.00001.000000  0.0000
CBEAM       4550       4    3915    3914  0.00001.000000  0.0000
CBEAM       4551       4    3914    3913  0.00001.000000  0.0000
CBEAM       4552       4    3913    3912  0.00001.000000  0.0000
CBEAM       4553       4    3912    3911  0.00001.000000  0.0000
CBEAM       4554       4    3911    3910  0.00001.000000  0.0000
CBEAM       4555       4    3910    3909  0.00001.000000  0.0000
CBEAM       4556       4    3909    3908  0.00001.000000  0.0000
CBEAM       4557       4    3908    3907  0.00001.000000  0.0000
CBEAM       4558       4    3907    3906  0.00001.000000  0.0000
CBEAM       4559       4    3906    3905  0.00001.000000  0.0000
CBEAM       4560       4    3905    3904  0.00001.000000  0.0000
CBEAM       4561       4    3904    3903  0.00001.000000  0.0000
CBEAM       4562       4    3903    3902  0.00001.000000  0.0000
CBEAM       4563       4    3902    3901  0.00001.000000  0.0000
CBEAM       4564       4    3901    3900  0.00001.000000  0.0000
CBEAM       4565       4    3900    3899  0.00001.000000  0.0000
CBEAM       4566       4    3899    3898  0.00001.000000  0.0000
CBEAM       4567       4    3898    3897  0.00001.000000  0.0000
CBEAM       4568       4    3897    3896  0.00001.000000  0.0000
CBEAM       4569       4    3896    3895  0.00001.000000  0.0000
CBEAM       4570       4    3895    3894  0.00001.000000  0.0000
CBEAM       4571       4    3894    3893  0.00001.000000  0.0000
CBEAM       4572       4    3893    3892  0.00001.000000  0.0000
CBEAM       4573       4    3892    3891  0.00001.000000  0.0000
CBEAM       4574       4    3891    3890  0.00001.000000  0.0000
CBEAM       4575       4    3890    3889  0.00001.000000  0.0000
CBEAM       4576       4    3889    3888  0.00001.000000  0.0000
CBEAM       4577       4    3888    3887  0.00001.000000  0.0000
CBEAM       4578       4    3887    3886  0.00001.000000  0.0000
CBEAM       4579       4    3886    3885  0.00001.000000  0.0000
CBEAM       4580       4    3885    3884  0.00001.000000  0.0000
CBEAM       4581       4    3884    3883  0.00001.000000  0.0000
CBEAM       4582       4    3883    3882  0.00001.000000  0.0000
CBEAM       4583       4    3882    3881  0.00001.000000  0.0000
CBEAM       4584       4    3881    3880  0.00001.000000  0.0000
CBEAM       4585       4    3880    3879  0.00001.000000  0.0000
CBEAM       4586       4    3879    3878  0.00001.000000  0.0000
CBEAM       4587       4    3878    3877  0.00001.000000  0.0000
CBEAM       4588       4    3877    3876  0.00001.000000  0.0000
CBEAM       4589       4    3876    3875  0.00001.000000  0.0000
CBEAM       4590       4    3875    3874  0.00001.000000  0.0000
CBEAM       4591       4    3874    3873  0.00001.000000  0.0000
CBEAM       4592       4    3873    3872  0.00001.000000  0.0000
CBEAM       4593       4    3872    3871  0.00001.000000  0.0000
CBEAM       4594       4    3871    3870  0.00001.000000  0.0000
CBEAM       4595       4    3870    3869  0.00001.000000  0.0000
CBEAM       4596       4    3869    3868  0.00001.000000  0.0000
CBEAM       4597       4    3868    3867  0.00001.000000  0.0000
CBEAM       4598       4    3867    3866  0.00001.000000  0.0000
CBEAM       4599       4    3866    3865  0.00001.000000  0.0000
CBEAM       4600       4    3865    3864  0.00001.000000  0.0000
CBEAM       4601       4    3864    3863  0.00001.000000  0.0000
CBEAM       4602       4    3863    3862  0.00001.000000  0.0000
CBEAM       4603       4    3862    3861  0.00001.000000  0.0000
CBEAM       4604       4    3861    3860  0.00001.000000  0.0000
CBEAM       4605       4    3860    3859  0.00001.000000  0.0000
CBEAM       4606       4    3859    3858  0.00001.000000  0.0000
CBEAM       4607       4    3858    3857  0.00001.000000  0.0000
CBEAM       4608       4    3857    3856  0.00001.000000  0.0000
CBEAM       4609       4    3856    3855  0.00001.000000  0.0000
CBEAM       4610       4    3855    3854  0.00001.000000  0.0000
CBEAM       4611       4    3854    3853  0.00001.000000  0.0000
CBEAM       4612       4    3853    3852  0.00001.000000  0.0000
CBEAM       4613       4    3852    3851  0.00001.000000  0.0000
CBEAM       4614       4    3851    3850  0.00001.000000  0.0000
CBEAM       4615       4    3850    3849  0.00001.000000  0.0000
CBEAM       4616       4    3849    3848  0.00001.000000  0.0000
CBEAM       4617       4    3848    3847  0.00001.000000  0.0000
CBEAM       4618       4    3847    3846  0.00001.000000  0.0000
CBEAM       4619       4    3846    3845  0.00001.000000  0.0000
CBEAM       4620       4    3845    3844  0.00001.000000  0.0000
CBEAM       4621       4    3844    3843  0.00001.000000  0.0000
CBEAM       4622       4    3843    3842  0.00001.000000  0.0000
CBEAM       4623       4    3842    3841  0.00001.000000  0.0000
CBEAM       4624       4    3841    3840  0.00001.000000  0.0000
CBEAM       4625       4    3840    3839  0.00001.000000  0.0000
CBEAM       4626       4    3839    3838  0.00001.000000  0.0000
CBEAM       4627       4    3838    3837  0.00001.000000  0.0000
CBEAM       4628       4    3837    3836  0.00001.000000  0.0000
CBEAM       4629       4    3836    3835  0.00001.000000  0.0000
CBEAM       4630       4    3835    3834  0.00001.000000  0.0000
CBEAM       4631       4    3834    3833  0.00001.000000  0.0000
CBEAM       4632       4    3833    3832  0.00001.000000  0.0000
CBEAM       4633       4    3832    3831  0.00001.000000  0.0000
CBEAM       4634       4    3831    3830  0.00001.000000  0.0000
CBEAM       4635       4    3830    3829  0.00001.000000  0.0000
CBEAM       4636       4    3829    3828  0.00001.000000  0.0000
CBEAM       4637       4    3828    3827  0.00001.000000  0.0000
CBEAM       4638       4    3827    3826  0.00001.000000  0.0000
CBEAM       4639       4    3826    3825  0.00001.000000  0.0000
CBEAM       4640       4    3825    3824  0.00001.000000  0.0000
CBEAM       4641       4    3824    3823  0.00001.000000  0.0000
CBEAM       4642       4    3823    3822  0.00001.000000  0.0000
CBEAM       4643       4    3822    3821  0.00001.000000  0.0000
CBEAM       4644       4    3821    3820  0.00001.000000  0.0000
CBEAM       4645       4    3820    3819  0.00001.000000  0.0000
CBEAM       4646       4    3819    3818  0.00001.000000  0.0000
CBEAM       4647       4    3818    3817  0.00001.000000  0.0000
CBEAM       4648       4    3817    3816  0.00001.000000  0.0000
CBEAM       4649       4    3816    3815  0.00001.000000  0.0000
CBEAM       4650       4    3815    3814  0.00001.000000  0.0000
CBEAM       4651       4    3814    3813  0.00001.000000  0.0000
CBEAM       4652       4    3813    3812  0.00001.000000  0.0000
CBEAM       4653       4    3812    3811  0.00001.000000  0.0000
CBEAM       4654       4    3811    3810  0.00001.000000  0.0000
CBEAM       4655       4    3810    3809  0.00001.000000  0.0000
CBEAM       4656       4    3809    3808  0.00001.000000  0.0000
CBEAM       4657       4    3808    3807  0.00001.000000  0.0000
CBEAM       4658       4    3807    3806  0.00001.000000  0.0000
CBEAM       4659       4    3806    3805  0.00001.000000  0.0000
CBEAM       4660       4    3805    3804  0.00001.000000  0.0000
CBEAM       4661       4    3804    3803  0.00001.000000  0.0000
CBEAM       4662       4    3803    3802  0.00001.000000  0.0000
CBEAM       4663       4    3802    3801  0.00001.000000  0.0000
CBEAM       4664       4    3801    3800  0.00001.000000  0.0000
CBEAM       4665       4    3800    3799  0.00001.000000  0.0000
CBEAM       4666       4    3799    3798  0.00001.000000  0.0000
CBEAM       4667       4    3798    3797  0.00001.000000  0.0000
CBEAM       4668       4    3797    3796  0.00001.000000  0.0000
CBEAM       4669       4    3796    3795  0.00001.000000  0.0000
CBEAM       4670       4    3795    3794  0.00001.000000  0.0000
CBEAM       4671       4    3794    3793  0.00001.000000  0.0000
CBEAM       4672       4    3793    3792  0.00001.000000  0.0000
CBEAM       4673       4    3792    3791  0.00001.000000  0.0000
CBEAM       4674       4    3791    3790  0.00001.000000  0.0000
CBEAM       4675       4    3790    3789  0.00001.000000  0.0000
CBEAM       4676       4    3789    3788  0.00001.000000  0.0000
CBEAM       4677       4    3788    3787  0.00001.000000  0.0000
CBEAM       4678       4    3787    3786  0.00001.000000  0.0000
CBEAM       4679       4    3786    3785  0.00001.000000  0.0000
CBEAM       4680       4    3785    3784  0.00001.000000  0.0000
CBEAM       4681       4    3784    3783  0.00001.000000  0.0000
CBEAM       4682       4    3783    3782  0.00001.000000  0.0000
CBEAM       4683       4    3782    3781  0.00001.000000  0.0000
CBEAM       4684       4    3781    3780  0.00001.000000  0.0000
CBEAM       4685       4    3780    3779  0.00001.000000  0.0000
CBEAM       4686       4    3779    3778  0.00001.000000  0.0000
CBEAM       4687       4    3778    3777  0.00001.000000  0.0000
CBEAM       4688       4    3777    3776  0.00001.000000  0.0000
CBEAM       4689       4    3776    3775  0.00001.000000  0.0000
CBEAM       4690       4    3775    3774  0.00001.000000  0.0000
CBEAM       4691       4    3774    3773  0.00001.000000  0.0000
CBEAM       4692       4    3773    3772  0.00001.000000  0.0000
CBEAM       4693       4    3772    3771  0.00001.000000  0.0000
CBEAM       4694       4    3771    3770  0.00001.000000  0.0000
CBEAM       4695       4    3770    3769  0.00001.000000  0.0000
CBEAM       4696       4    3769    3768  0.00001.000000  0.0000
CBEAM       4697       4    3768    3767  0.00001.000000  0.0000
CBEAM       4698       4    3767    3766  0.00001.000000  0.0000
CBEAM       4699       4    3766    3765  0.00001.000000  0.0000
CBEAM       4700       4    3765    3764  0.00001.000000  0.0000
CBEAM       4701       4    3764    3763  0.00001.000000  0.0000
CBEAM       4702       4    3763    3762  0.00001.000000  0.0000
CBEAM       4703       4    3762    3761  0.00001.000000  0.0000
CBEAM       4704       4    3761    3760  0.00001.000000  0.0000
CBEAM       4705       4    3760    3759  0.00001.000000  0.0000
CBEAM       4706       4    3759    3758  0.00001.000000  0.0000
CBEAM       4707       4    3758    3757  0.00001.000000  0.0000
CBEAM       4708       4    3757    3756  0.00001.000000  0.0000
CBEAM       4709       4    3756    3755  0.00001.000000  0.0000
CBEAM       4710       4    3755    3754  0.00001.000000  0.0000
CBEAM       4711       4    3754    3753  0.00001.000000  0.0000
CBEAM       4712       4    3753    3752  0.00001.000000  0.0000
CBEAM       4713       4    3752    3751  0.00001.000000  0.0000
CBEAM       4714       4    3751    3750  0.00001.000000  0.0000
CBEAM       4715       4    3750    3749  0.00001.000000  0.0000
CBEAM       4716       4    3749    3748  0.00001.000000  0.0000
CBEAM       4717       4    3748    3747  0.00001.000000  0.0000
CBEAM       4718       4    3747    3746  0.00001.000000  0.0000
CBEAM       4719       4    3746    3745  0.00001.000000  0.0000
CBEAM       4720       4    3745    3744  0.00001.000000  0.0000
CBEAM       4721       4    3744    3743  0.00001.000000  0.0000
CBEAM       4722       4    3743    3742  0.00001.000000  0.0000
CBEAM       4723       4    3742    3741  0.00001.000000  0.0000
CBEAM       4724       4    3741    3740  0.00001.000000  0.0000
CBEAM       4725       4    3740    3739  0.00001.000000  0.0000
CBEAM       4726       4    3739    3738  0.00001.000000  0.0000
CBEAM       4727       4    3738    3737  0.00001.000000  0.0000
CBEAM       4728       4    3737    3736  0.00001.000000  0.0000
CBEAM       4729       4    3736    3735  0.00001.000000  0.0000
CBEAM       4730       4    3735    3734  0.00001.000000  0.0000
CBEAM       4731       4    3734    3733  0.00001.000000  0.0000
CBEAM       4732       4    3733    3732  0.00001.000000  0.0000
CBEAM       4733       4    3732    3731  0.00001.000000  0.0000
CBEAM       4734       4    3731    3730  0.00001.000000  0.0000
CBEAM       4735       4    3730    3729  0.00001.000000  0.0000
CBEAM       4736       4    3729    3728  0.00001.000000  0.0000
CBEAM       4737       4    3728    3727  0.00001.000000  0.0000
CBEAM       4738       4    3727    3726  0.00001.000000  0.0000
CBEAM       4739       4    3726    3725  0.00001.000000  0.0000
CBEAM       4740       4    3725    3724  0.00001.000000  0.0000
CBEAM       4741       4    3724    3723  0.00001.000000  0.0000
CBEAM       4742       4    3723    3722  0.00001.000000  0.0000
CBEAM       4743       4    3722    3721  0.00001.000000  0.0000
CBEAM       4744       4    3721    3720  0.00001.000000  0.0000
CBEAM       4745       4    3720    3719  0.00001.000000  0.0000
CBEAM       4746       4    3719    3718  0.00001.000000  0.0000
CBEAM       4747       4    3718    3717  0.00001.000000  0.0000
CBEAM       4748       4    3717    3716  0.00001.000000  0.0000
CBEAM       4749       4    3716    3715  0.00001.000000  0.0000
CBEAM       4750       4    3715    3714  0.00001.000000  0.0000
CBEAM       4751       4    3714    3713  0.00001.000000  0.0000
CBEAM       4752       4    3713    3712  0.00001.000000  0.0000
CBEAM       4753       4    3712    3711  0.00001.000000  0.0000
CBEAM       4754       4    3711    3710  0.00001.000000  0.0000
CBEAM       4755       4    3710    3709  0.00001.000000  0.0000
CBEAM       4756       4    3709    3708  0.00001.000000  0.0000
CBEAM       4757       4    3708    3707  0.00001.000000  0.0000
CBEAM       4758       4    3707    3706  0.00001.000000  0.0000
CBEAM       4759       4    3706    3705  0.00001.000000  0.0000
CBEAM       4760       4    3705    3704  0.00001.000000  0.0000
CBEAM       4761       4    3704    3703  0.00001.000000  0.0000
CBEAM       4762       4    3703    3702  0.00001.000000  0.0000
CBEAM       4763       4    3702    3701  0.00001.000000  0.0000
CBEAM       4764       4    3701    3700  0.00001.000000  0.0000
CBEAM       4765       4    3700    3699  0.00001.000000  0.0000
CBEAM       4766       4    3699    3698  0.00001.000000  0.0000
CBEAM       4767       4    3698    3697  0.00001.000000  0.0000
CBEAM       4768       4    3697    3696  0.00001.000000  0.0000
CBEAM       4769       4    3696    3695  0.00001.000000  0.0000
CBEAM       4770       4    3695    3694  0.00001.000000  0.0000
CBEAM       4771       4    3694    3693  0.00001.000000  0.0000
CBEAM       4772       4    3693    3692  0.00001.000000  0.0000
CBEAM       4773       4    3692    3691  0.00001.000000  0.0000
CBEAM       4774       4    3691    3690  0.00001.000000  0.0000
CBEAM       4775       4    3690    3689  0.00001.000000  0.0000
CBEAM       4776       4    3689    3688  0.00001.000000  0.0000
CBEAM       4777       4    3688    3687  0.00001.000000  0.0000
CBEAM       4778       4    3687    3686  0.00001.000000  0.0000
CBEAM       4779       4    3686    3685  0.00001.000000  0.0000
CBEAM       4780       4    3685    3684  0.00001.000000  0.0000
CBEAM       4781       4    3684    3683  0.00001.000000  0.0000
CBEAM       4782       4    3683    3682  0.00001.000000  0.0000
CBEAM       4783       4    3682    3681  0.00001.000000  0.0000
CBEAM       4784       4    3681    3680  0.00001.000000  0.0000
CBEAM       4785       4    3680    3679  0.00001.000000  0.0000
CBEAM       4786       4    3679    3678  0.00001.000000  0.0000
CBEAM       4787       4    3678    3677  0.00001.000000  0.0000
CBEAM       4788       4    3677    3676  0.00001.000000  0.0000
CBEAM       4789       4    3676    3675  0.00001.000000  0.0000
CBEAM       4790       4    3675    3674  0.00001.000000  0.0000
CBEAM       4791       4    3674    3673  0.00001.000000  0.0000
CBEAM       4792       4    3673    3672  0.00001.000000  0.0000
CBEAM       4793       4    3672    3671  0.00001.000000  0.0000
CBEAM       4794       4    3671    3670  0.00001.000000  0.0000
CBEAM       4795       4    3670    3669  0.00001.000000  0.0000
CBEAM       4796       4    3669    3668  0.00001.000000  0.0000
CBEAM       4797       4    3668    3667  0.00001.000000  0.0000
CBEAM       4798       4    3667    3666  0.00001.000000  0.0000
CBEAM       4799       4    3666    3665  0.00001.000000  0.0000
CBEAM       4800       4    3665    3664  0.00001.000000  0.0000
CBEAM       4801       4    3664    3663  0.00001.000000  0.0000
CBEAM       4802       4    3663    3662  0.00001.000000  0.0000
CBEAM       4803       4    3662    3661  0.00001.000000  0.0000
CBEAM       4804       4    3661    3660  0.00001.000000  0.0000
CBEAM       4805       4    3660    3659  0.00001.000000  0.0000
CBEAM       4806       4    3659    3658  0.00001.000000  0.0000
CBEAM       4807       4    3658    3657  0.00001.000000  0.0000
CBEAM       4808       4    3657    3656  0.00001.000000  0.0000
CBEAM       4809       4    3656    3655  0.00001.000000  0.0000
CBEAM       4810       4    3655    3654  0.00001.000000  0.0000
CBEAM       4811       4    3654    3653  0.00001.000000  0.0000
CBEAM       4812       4    3653    3652  0.00001.000000  0.0000
CBEAM       4813       4    3652    3651  0.00001.000000  0.0000
CBEAM       4814       4    3651    3650  0.00001.000000  0.0000
CBEAM       4815       4    3650    3649  0.00001.000000  0.0000
CBEAM       4816       4    3649    3648  0.00001.000000  0.0000
CBEAM       4817       4    3648    3647  0.00001.000000  0.0000
CBEAM       4818       4    3647    3646  0.00001.000000  0.0000
CBEAM       4819       4    3646    3645  0.00001.000000  0.0000
CBEAM       4820       4    3645    3644  0.00001.000000  0.0000
CBEAM       4821       4    3644    3643  0.00001.000000  0.0000
CBEAM       4822       4    3643    3642  0.00001.000000  0.0000
CBEAM       4823       4    3642    3641  0.00001.000000  0.0000
CBEAM       4824       4    3641    3640  0.00001.000000  0.0000
CBEAM       4825       4    3640    3639  0.00001.000000  0.0000
CBEAM       4826       4    3639    3638  0.00001.000000  0.0000
CBEAM       4827       4    3638    3637  0.00001.000000  0.0000
CBEAM       4828       4    3637    3636  0.00001.000000  0.0000
CBEAM       4829       4    3636    3635  0.00001.000000  0.0000
CBEAM       4830       4    3635    3634  0.00001.000000  0.0000
CBEAM       4831       4    3634    3633  0.00001.000000  0.0000
CBEAM       4832       4    3633    3632  0.00001.000000  0.0000
CBEAM       4833       4    3632    3631  0.00001.000000  0.0000
CBEAM       4834       4    3631    3630  0.00001.000000  0.0000
CBEAM       4835       4    3630    3629  0.00001.000000  0.0000
$*  Mesh Collector: Beam Collector(5)
$*  Mesh: 1d_mesh(5)
CBEAM       4836       5    5900    5899  0.00001.000000  0.0000
CBEAM       4837       5    5899    5898  0.00001.000000  0.0000
CBEAM       4838       5    5898    5897  0.00001.000000  0.0000
CBEAM       4839       5    5897    5896  0.00001.000000  0.0000
CBEAM       4840       5    5896    5895  0.00001.000000  0.0000
CBEAM       4841       5    5895    5894  0.00001.000000  0.0000
CBEAM       4842       5    5894    5893  0.00001.000000  0.0000
CBEAM       4843       5    5893    5892  0.00001.000000  0.0000
CBEAM       4844       5    5892    5891  0.00001.000000  0.0000
CBEAM       4845       5    5891    5890  0.00001.000000  0.0000
CBEAM       4846       5    5890    5889  0.00001.000000  0.0000
CBEAM       4847       5    5889    5888  0.00001.000000  0.0000
CBEAM       4848       5    5888    5887  0.00001.000000  0.0000
CBEAM       4849       5    5887    5886  0.00001.000000  0.0000
CBEAM       4850       5    5886    5885  0.00001.000000  0.0000
CBEAM       4851       5    5885    5884  0.00001.000000  0.0000
CBEAM       4852       5    5884    5883  0.00001.000000  0.0000
CBEAM       4853       5    5883    5882  0.00001.000000  0.0000
CBEAM       4854       5    5882    5881  0.00001.000000  0.0000
CBEAM       4855       5    5881    5880  0.00001.000000  0.0000
CBEAM       4856       5    5880    5879  0.00001.000000  0.0000
CBEAM       4857       5    5879    5878  0.00001.000000  0.0000
CBEAM       4858       5    5878    5877  0.00001.000000  0.0000
CBEAM       4859       5    5877    5876  0.00001.000000  0.0000
CBEAM       4860       5    5876    5875  0.00001.000000  0.0000
CBEAM       4861       5    5875    5874  0.00001.000000  0.0000
CBEAM       4862       5    5874    5873  0.00001.000000  0.0000
CBEAM       4863       5    5873    5872  0.00001.000000  0.0000
CBEAM       4864       5    5872    5871  0.00001.000000  0.0000
CBEAM       4865       5    5871    5870  0.00001.000000  0.0000
CBEAM       4866       5    5870    5869  0.00001.000000  0.0000
CBEAM       4867       5    5869    5868  0.00001.000000  0.0000
CBEAM       4868       5    5868    5867  0.00001.000000  0.0000
CBEAM       4869       5    5867    5866  0.00001.000000  0.0000
CBEAM       4870       5    5866    5865  0.00001.000000  0.0000
CBEAM       4871       5    5865    5864  0.00001.000000  0.0000
CBEAM       4872       5    5864    5863  0.00001.000000  0.0000
CBEAM       4873       5    5863    5862  0.00001.000000  0.0000
CBEAM       4874       5    5862    5861  0.00001.000000  0.0000
CBEAM       4875       5    5861    5860  0.00001.000000  0.0000
CBEAM       4876       5    5860    5859  0.00001.000000  0.0000
CBEAM       4877       5    5859    5858  0.00001.000000  0.0000
CBEAM       4878       5    5858    5857  0.00001.000000  0.0000
CBEAM       4879       5    5857    5856  0.00001.000000  0.0000
CBEAM       4880       5    5856    5855  0.00001.000000  0.0000
CBEAM       4881       5    5855    5854  0.00001.000000  0.0000
CBEAM       4882       5    5854    5853  0.00001.000000  0.0000
CBEAM       4883       5    5853    5852  0.00001.000000  0.0000
CBEAM       4884       5    5852    5851  0.00001.000000  0.0000
CBEAM       4885       5    5851    5850  0.00001.000000  0.0000
CBEAM       4886       5    5850    5849  0.00001.000000  0.0000
CBEAM       4887       5    5849    5848  0.00001.000000  0.0000
CBEAM       4888       5    5848    5847  0.00001.000000  0.0000
CBEAM       4889       5    5847    5846  0.00001.000000  0.0000
CBEAM       4890       5    5846    5845  0.00001.000000  0.0000
CBEAM       4891       5    5845    5844  0.00001.000000  0.0000
CBEAM       4892       5    5844    5843  0.00001.000000  0.0000
CBEAM       4893       5    5843    5842  0.00001.000000  0.0000
CBEAM       4894       5    5842    5841  0.00001.000000  0.0000
CBEAM       4895       5    5841    5840  0.00001.000000  0.0000
CBEAM       4896       5    5840    5839  0.00001.000000  0.0000
CBEAM       4897       5    5839    5838  0.00001.000000  0.0000
CBEAM       4898       5    5838    5837  0.00001.000000  0.0000
CBEAM       4899       5    5837    5836  0.00001.000000  0.0000
CBEAM       4900       5    5836    5835  0.00001.000000  0.0000
CBEAM       4901       5    5835    5834  0.00001.000000  0.0000
CBEAM       4902       5    5834    5833  0.00001.000000  0.0000
CBEAM       4903       5    5833    5832  0.00001.000000  0.0000
CBEAM       4904       5    5832    5831  0.00001.000000  0.0000
CBEAM       4905       5    5831    5830  0.00001.000000  0.0000
CBEAM       4906       5    5830    5829  0.00001.000000  0.0000
CBEAM       4907       5    5829    5828  0.00001.000000  0.0000
CBEAM       4908       5    5828    5827  0.00001.000000  0.0000
CBEAM       4909       5    5827    5826  0.00001.000000  0.0000
CBEAM       4910       5    5826    5825  0.00001.000000  0.0000
CBEAM       4911       5    5825    5824  0.00001.000000  0.0000
CBEAM       4912       5    5824    5823  0.00001.000000  0.0000
CBEAM       4913       5    5823    5822  0.00001.000000  0.0000
CBEAM       4914       5    5822    5821  0.00001.000000  0.0000
CBEAM       4915       5    5821    5820  0.00001.000000  0.0000
CBEAM       4916       5    5820    5819  0.00001.000000  0.0000
CBEAM       4917       5    5819    5818  0.00001.000000  0.0000
CBEAM       4918       5    5818    5817  0.00001.000000  0.0000
CBEAM       4919       5    5817    5816  0.00001.000000  0.0000
CBEAM       4920       5    5816    5815  0.00001.000000  0.0000
CBEAM       4921       5    5815    5814  0.00001.000000  0.0000
CBEAM       4922       5    5814    5813  0.00001.000000  0.0000
CBEAM       4923       5    5813    5812  0.00001.000000  0.0000
CBEAM       4924       5    5812    5811  0.00001.000000  0.0000
CBEAM       4925       5    5811    5810  0.00001.000000  0.0000
CBEAM       4926       5    5810    5809  0.00001.000000  0.0000
CBEAM       4927       5    5809    5808  0.00001.000000  0.0000
CBEAM       4928       5    5808    5807  0.00001.000000  0.0000
CBEAM       4929       5    5807    5806  0.00001.000000  0.0000
CBEAM       4930       5    5806    5805  0.00001.000000  0.0000
CBEAM       4931       5    5805    5804  0.00001.000000  0.0000
CBEAM       4932       5    5804    5803  0.00001.000000  0.0000
CBEAM       4933       5    5803    5802  0.00001.000000  0.0000
CBEAM       4934       5    5802    5801  0.00001.000000  0.0000
CBEAM       4935       5    5801    5800  0.00001.000000  0.0000
CBEAM       4936       5    5800    5799  0.00001.000000  0.0000
CBEAM       4937       5    5799    5798  0.00001.000000  0.0000
CBEAM       4938       5    5798    5797  0.00001.000000  0.0000
CBEAM       4939       5    5797    5796  0.00001.000000  0.0000
CBEAM       4940       5    5796    5795  0.00001.000000  0.0000
CBEAM       4941       5    5795    5794  0.00001.000000  0.0000
CBEAM       4942       5    5794    5793  0.00001.000000  0.0000
CBEAM       4943       5    5793    5792  0.00001.000000  0.0000
CBEAM       4944       5    5792    5791  0.00001.000000  0.0000
CBEAM       4945       5    5791    5790  0.00001.000000  0.0000
CBEAM       4946       5    5790    5789  0.00001.000000  0.0000
CBEAM       4947       5    5789    5788  0.00001.000000  0.0000
CBEAM       4948       5    5788    5787  0.00001.000000  0.0000
CBEAM       4949       5    5787    5786  0.00001.000000  0.0000
CBEAM       4950       5    5786    5785  0.00001.000000  0.0000
CBEAM       4951       5    5785    5784  0.00001.000000  0.0000
CBEAM       4952       5    5784    5783  0.00001.000000  0.0000
CBEAM       4953       5    5783    5782  0.00001.000000  0.0000
CBEAM       4954       5    5782    5781  0.00001.000000  0.0000
CBEAM       4955       5    5781    5780  0.00001.000000  0.0000
CBEAM       4956       5    5780    5779  0.00001.000000  0.0000
CBEAM       4957       5    5779    5778  0.00001.000000  0.0000
CBEAM       4958       5    5778    5777  0.00001.000000  0.0000
CBEAM       4959       5    5777    5776  0.00001.000000  0.0000
CBEAM       4960       5    5776    5775  0.00001.000000  0.0000
CBEAM       4961       5    5775    5774  0.00001.000000  0.0000
CBEAM       4962       5    5774    5773  0.00001.000000  0.0000
CBEAM       4963       5    5773    5772  0.00001.000000  0.0000
CBEAM       4964       5    5772    5771  0.00001.000000  0.0000
CBEAM       4965       5    5771    5770  0.00001.000000  0.0000
CBEAM       4966       5    5770    5769  0.00001.000000  0.0000
CBEAM       4967       5    5769    5768  0.00001.000000  0.0000
CBEAM       4968       5    5768    5767  0.00001.000000  0.0000
CBEAM       4969       5    5767    5766  0.00001.000000  0.0000
CBEAM       4970       5    5766    5765  0.00001.000000  0.0000
CBEAM       4971       5    5765    5764  0.00001.000000  0.0000
CBEAM       4972       5    5764    5763  0.00001.000000  0.0000
CBEAM       4973       5    5763    5762  0.00001.000000  0.0000
CBEAM       4974       5    5762    5761  0.00001.000000  0.0000
CBEAM       4975       5    5761    5760  0.00001.000000  0.0000
CBEAM       4976       5    5760    5759  0.00001.000000  0.0000
CBEAM       4977       5    5759    5758  0.00001.000000  0.0000
CBEAM       4978       5    5758    5757  0.00001.000000  0.0000
CBEAM       4979       5    5757    5756  0.00001.000000  0.0000
CBEAM       4980       5    5756    5755  0.00001.000000  0.0000
CBEAM       4981       5    5755    5754  0.00001.000000  0.0000
CBEAM       4982       5    5754    5753  0.00001.000000  0.0000
CBEAM       4983       5    5753    5752  0.00001.000000  0.0000
CBEAM       4984       5    5752    5751  0.00001.000000  0.0000
CBEAM       4985       5    5751    5750  0.00001.000000  0.0000
CBEAM       4986       5    5750    5749  0.00001.000000  0.0000
CBEAM       4987       5    5749    5748  0.00001.000000  0.0000
CBEAM       4988       5    5748    5747  0.00001.000000  0.0000
CBEAM       4989       5    5747    5746  0.00001.000000  0.0000
CBEAM       4990       5    5746    5745  0.00001.000000  0.0000
CBEAM       4991       5    5745    5744  0.00001.000000  0.0000
CBEAM       4992       5    5744    5743  0.00001.000000  0.0000
CBEAM       4993       5    5743    5742  0.00001.000000  0.0000
CBEAM       4994       5    5742    5741  0.00001.000000  0.0000
CBEAM       4995       5    5741    5740  0.00001.000000  0.0000
CBEAM       4996       5    5740    5739  0.00001.000000  0.0000
CBEAM       4997       5    5739    5738  0.00001.000000  0.0000
CBEAM       4998       5    5738    5737  0.00001.000000  0.0000
CBEAM       4999       5    5737    5736  0.00001.000000  0.0000
CBEAM       5000       5    5736    5735  0.00001.000000  0.0000
CBEAM       5001       5    5735    5734  0.00001.000000  0.0000
CBEAM       5002       5    5734    5733  0.00001.000000  0.0000
CBEAM       5003       5    5733    5732  0.00001.000000  0.0000
CBEAM       5004       5    5732    5731  0.00001.000000  0.0000
CBEAM       5005       5    5731    5730  0.00001.000000  0.0000
CBEAM       5006       5    5730    5729  0.00001.000000  0.0000
CBEAM       5007       5    5729    5728  0.00001.000000  0.0000
CBEAM       5008       5    5728    5727  0.00001.000000  0.0000
CBEAM       5009       5    5727    5726  0.00001.000000  0.0000
CBEAM       5010       5    5726    5725  0.00001.000000  0.0000
CBEAM       5011       5    5725    5724  0.00001.000000  0.0000
CBEAM       5012       5    5724    5723  0.00001.000000  0.0000
CBEAM       5013       5    5723    5722  0.00001.000000  0.0000
CBEAM       5014       5    5722    5721  0.00001.000000  0.0000
CBEAM       5015       5    5721    5720  0.00001.000000  0.0000
CBEAM       5016       5    5720    5719  0.00001.000000  0.0000
CBEAM       5017       5    5719    5718  0.00001.000000  0.0000
CBEAM       5018       5    5718    5717  0.00001.000000  0.0000
CBEAM       5019       5    5717    5716  0.00001.000000  0.0000
CBEAM       5020       5    5716    5715  0.00001.000000  0.0000
CBEAM       5021       5    5715    5714  0.00001.000000  0.0000
CBEAM       5022       5    5714    5713  0.00001.000000  0.0000
CBEAM       5023       5    5713    5712  0.00001.000000  0.0000
CBEAM       5024       5    5712    5711  0.00001.000000  0.0000
CBEAM       5025       5    5711    5710  0.00001.000000  0.0000
CBEAM       5026       5    5710    5709  0.00001.000000  0.0000
CBEAM       5027       5    5709    5708  0.00001.000000  0.0000
CBEAM       5028       5    5708    5707  0.00001.000000  0.0000
CBEAM       5029       5    5707    5706  0.00001.000000  0.0000
CBEAM       5030       5    5706    5705  0.00001.000000  0.0000
CBEAM       5031       5    5705    5704  0.00001.000000  0.0000
CBEAM       5032       5    5704    5703  0.00001.000000  0.0000
CBEAM       5033       5    5703    5702  0.00001.000000  0.0000
CBEAM       5034       5    5702    5701  0.00001.000000  0.0000
CBEAM       5035       5    5701    5700  0.00001.000000  0.0000
CBEAM       5036       5    5700    5699  0.00001.000000  0.0000
CBEAM       5037       5    5699    5698  0.00001.000000  0.0000
CBEAM       5038       5    5698    5697  0.00001.000000  0.0000
CBEAM       5039       5    5697    5696  0.00001.000000  0.0000
CBEAM       5040       5    5696    5695  0.00001.000000  0.0000
CBEAM       5041       5    5695    5694  0.00001.000000  0.0000
CBEAM       5042       5    5694    5693  0.00001.000000  0.0000
CBEAM       5043       5    5693    5692  0.00001.000000  0.0000
CBEAM       5044       5    5692    5691  0.00001.000000  0.0000
CBEAM       5045       5    5691    5690  0.00001.000000  0.0000
CBEAM       5046       5    5690    5689  0.00001.000000  0.0000
CBEAM       5047       5    5689    5688  0.00001.000000  0.0000
CBEAM       5048       5    5688    5687  0.00001.000000  0.0000
CBEAM       5049       5    5687    5686  0.00001.000000  0.0000
CBEAM       5050       5    5686    5685  0.00001.000000  0.0000
CBEAM       5051       5    5685    5684  0.00001.000000  0.0000
CBEAM       5052       5    5684    5683  0.00001.000000  0.0000
CBEAM       5053       5    5683    5682  0.00001.000000  0.0000
CBEAM       5054       5    5682    5681  0.00001.000000  0.0000
CBEAM       5055       5    5681    5680  0.00001.000000  0.0000
CBEAM       5056       5    5680    5679  0.00001.000000  0.0000
CBEAM       5057       5    5679    5678  0.00001.000000  0.0000
CBEAM       5058       5    5678    5677  0.00001.000000  0.0000
CBEAM       5059       5    5677    5676  0.00001.000000  0.0000
CBEAM       5060       5    5676    5675  0.00001.000000  0.0000
CBEAM       5061       5    5675    5674  0.00001.000000  0.0000
CBEAM       5062       5    5674    5673  0.00001.000000  0.0000
CBEAM       5063       5    5673    5672  0.00001.000000  0.0000
CBEAM       5064       5    5672    5671  0.00001.000000  0.0000
CBEAM       5065       5    5671    5670  0.00001.000000  0.0000
CBEAM       5066       5    5670    5669  0.00001.000000  0.0000
CBEAM       5067       5    5669    5668  0.00001.000000  0.0000
CBEAM       5068       5    5668    5667  0.00001.000000  0.0000
CBEAM       5069       5    5667    5666  0.00001.000000  0.0000
CBEAM       5070       5    5666    5665  0.00001.000000  0.0000
CBEAM       5071       5    5665    5664  0.00001.000000  0.0000
CBEAM       5072       5    5664    5663  0.00001.000000  0.0000
CBEAM       5073       5    5663    5662  0.00001.000000  0.0000
CBEAM       5074       5    5662    5661  0.00001.000000  0.0000
CBEAM       5075       5    5661    5660  0.00001.000000  0.0000
CBEAM       5076       5    5660    5659  0.00001.000000  0.0000
CBEAM       5077       5    5659    5658  0.00001.000000  0.0000
CBEAM       5078       5    5658    5657  0.00001.000000  0.0000
CBEAM       5079       5    5657    5656  0.00001.000000  0.0000
CBEAM       5080       5    5656    5655  0.00001.000000  0.0000
CBEAM       5081       5    5655    5654  0.00001.000000  0.0000
CBEAM       5082       5    5654    5653  0.00001.000000  0.0000
CBEAM       5083       5    5653    5652  0.00001.000000  0.0000
CBEAM       5084       5    5652    5651  0.00001.000000  0.0000
CBEAM       5085       5    5651    5650  0.00001.000000  0.0000
CBEAM       5086       5    5650    5649  0.00001.000000  0.0000
CBEAM       5087       5    5649    5648  0.00001.000000  0.0000
CBEAM       5088       5    5648    5647  0.00001.000000  0.0000
CBEAM       5089       5    5647    5646  0.00001.000000  0.0000
CBEAM       5090       5    5646    5645  0.00001.000000  0.0000
CBEAM       5091       5    5645    5644  0.00001.000000  0.0000
CBEAM       5092       5    5644    5643  0.00001.000000  0.0000
CBEAM       5093       5    5643    5642  0.00001.000000  0.0000
CBEAM       5094       5    5642    5641  0.00001.000000  0.0000
CBEAM       5095       5    5641    5640  0.00001.000000  0.0000
CBEAM       5096       5    5640    5639  0.00001.000000  0.0000
CBEAM       5097       5    5639    5638  0.00001.000000  0.0000
CBEAM       5098       5    5638    5637  0.00001.000000  0.0000
CBEAM       5099       5    5637    5636  0.00001.000000  0.0000
CBEAM       5100       5    5636    5635  0.00001.000000  0.0000
CBEAM       5101       5    5635    5634  0.00001.000000  0.0000
CBEAM       5102       5    5634    5633  0.00001.000000  0.0000
CBEAM       5103       5    5633    5632  0.00001.000000  0.0000
CBEAM       5104       5    5632    5631  0.00001.000000  0.0000
CBEAM       5105       5    5631    5630  0.00001.000000  0.0000
CBEAM       5106       5    5630    5629  0.00001.000000  0.0000
CBEAM       5107       5    5629    5628  0.00001.000000  0.0000
CBEAM       5108       5    5628    5627  0.00001.000000  0.0000
CBEAM       5109       5    5627    5626  0.00001.000000  0.0000
CBEAM       5110       5    5626    5625  0.00001.000000  0.0000
CBEAM       5111       5    5625    5624  0.00001.000000  0.0000
CBEAM       5112       5    5624    5623  0.00001.000000  0.0000
CBEAM       5113       5    5623    5622  0.00001.000000  0.0000
CBEAM       5114       5    5622    5621  0.00001.000000  0.0000
CBEAM       5115       5    5621    5620  0.00001.000000  0.0000
CBEAM       5116       5    5620    5619  0.00001.000000  0.0000
CBEAM       5117       5    5619    5618  0.00001.000000  0.0000
CBEAM       5118       5    5618    5617  0.00001.000000  0.0000
CBEAM       5119       5    5617    5616  0.00001.000000  0.0000
CBEAM       5120       5    5616    5615  0.00001.000000  0.0000
CBEAM       5121       5    5615    5614  0.00001.000000  0.0000
CBEAM       5122       5    5614    5613  0.00001.000000  0.0000
CBEAM       5123       5    5613    5612  0.00001.000000  0.0000
CBEAM       5124       5    5612    5611  0.00001.000000  0.0000
CBEAM       5125       5    5611    5610  0.00001.000000  0.0000
CBEAM       5126       5    5610    5609  0.00001.000000  0.0000
CBEAM       5127       5    5609    5608  0.00001.000000  0.0000
CBEAM       5128       5    5608    5607  0.00001.000000  0.0000
CBEAM       5129       5    5607    5606  0.00001.000000  0.0000
CBEAM       5130       5    5606    5605  0.00001.000000  0.0000
CBEAM       5131       5    5605    5604  0.00001.000000  0.0000
CBEAM       5132       5    5604    5603  0.00001.000000  0.0000
CBEAM       5133       5    5603    5602  0.00001.000000  0.0000
CBEAM       5134       5    5602    5601  0.00001.000000  0.0000
CBEAM       5135       5    5601    5600  0.00001.000000  0.0000
CBEAM       5136       5    5600    5599  0.00001.000000  0.0000
CBEAM       5137       5    5599    5598  0.00001.000000  0.0000
CBEAM       5138       5    5598    5597  0.00001.000000  0.0000
CBEAM       5139       5    5597    5596  0.00001.000000  0.0000
CBEAM       5140       5    5596    5595  0.00001.000000  0.0000
CBEAM       5141       5    5595    5594  0.00001.000000  0.0000
CBEAM       5142       5    5594    5593  0.00001.000000  0.0000
CBEAM       5143       5    5593    5592  0.00001.000000  0.0000
CBEAM       5144       5    5592    5591  0.00001.000000  0.0000
CBEAM       5145       5    5591    5590  0.00001.000000  0.0000
CBEAM       5146       5    5590    5589  0.00001.000000  0.0000
CBEAM       5147       5    5589    5588  0.00001.000000  0.0000
CBEAM       5148       5    5588    5587  0.00001.000000  0.0000
CBEAM       5149       5    5587    5586  0.00001.000000  0.0000
CBEAM       5150       5    5586    5585  0.00001.000000  0.0000
CBEAM       5151       5    5585    5584  0.00001.000000  0.0000
CBEAM       5152       5    5584    5583  0.00001.000000  0.0000
CBEAM       5153       5    5583    5582  0.00001.000000  0.0000
CBEAM       5154       5    5582    5581  0.00001.000000  0.0000
CBEAM       5155       5    5581    5580  0.00001.000000  0.0000
CBEAM       5156       5    5580    5579  0.00001.000000  0.0000
CBEAM       5157       5    5579    5578  0.00001.000000  0.0000
CBEAM       5158       5    5578    5577  0.00001.000000  0.0000
CBEAM       5159       5    5577    5576  0.00001.000000  0.0000
CBEAM       5160       5    5576    5575  0.00001.000000  0.0000
CBEAM       5161       5    5575    5574  0.00001.000000  0.0000
CBEAM       5162       5    5574    5573  0.00001.000000  0.0000
CBEAM       5163       5    5573    5572  0.00001.000000  0.0000
CBEAM       5164       5    5572    5571  0.00001.000000  0.0000
CBEAM       5165       5    5571    5570  0.00001.000000  0.0000
CBEAM       5166       5    5570    5569  0.00001.000000  0.0000
CBEAM       5167       5    5569    5568  0.00001.000000  0.0000
CBEAM       5168       5    5568    5567  0.00001.000000  0.0000
CBEAM       5169       5    5567    5566  0.00001.000000  0.0000
CBEAM       5170       5    5566    5565  0.00001.000000  0.0000
CBEAM       5171       5    5565    5564  0.00001.000000  0.0000
CBEAM       5172       5    5564    5563  0.00001.000000  0.0000
CBEAM       5173       5    5563    5562  0.00001.000000  0.0000
CBEAM       5174       5    5562    5561  0.00001.000000  0.0000
CBEAM       5175       5    5561    5560  0.00001.000000  0.0000
CBEAM       5176       5    5560    5559  0.00001.000000  0.0000
CBEAM       5177       5    5559    5558  0.00001.000000  0.0000
CBEAM       5178       5    5558    5557  0.00001.000000  0.0000
CBEAM       5179       5    5557    5556  0.00001.000000  0.0000
CBEAM       5180       5    5556    5555  0.00001.000000  0.0000
CBEAM       5181       5    5555    5554  0.00001.000000  0.0000
CBEAM       5182       5    5554    5553  0.00001.000000  0.0000
CBEAM       5183       5    5553    5552  0.00001.000000  0.0000
CBEAM       5184       5    5552    5551  0.00001.000000  0.0000
CBEAM       5185       5    5551    5550  0.00001.000000  0.0000
CBEAM       5186       5    5550    5549  0.00001.000000  0.0000
CBEAM       5187       5    5549    5548  0.00001.000000  0.0000
CBEAM       5188       5    5548    5547  0.00001.000000  0.0000
CBEAM       5189       5    5547    5546  0.00001.000000  0.0000
CBEAM       5190       5    5546    5545  0.00001.000000  0.0000
CBEAM       5191       5    5545    5544  0.00001.000000  0.0000
CBEAM       5192       5    5544    5543  0.00001.000000  0.0000
CBEAM       5193       5    5543    5542  0.00001.000000  0.0000
CBEAM       5194       5    5542    5541  0.00001.000000  0.0000
CBEAM       5195       5    5541    5540  0.00001.000000  0.0000
CBEAM       5196       5    5540    5539  0.00001.000000  0.0000
CBEAM       5197       5    5539    5538  0.00001.000000  0.0000
CBEAM       5198       5    5538    5537  0.00001.000000  0.0000
CBEAM       5199       5    5537    5536  0.00001.000000  0.0000
CBEAM       5200       5    5536    5535  0.00001.000000  0.0000
CBEAM       5201       5    5535    5534  0.00001.000000  0.0000
CBEAM       5202       5    5534    5533  0.00001.000000  0.0000
CBEAM       5203       5    5533    5532  0.00001.000000  0.0000
CBEAM       5204       5    5532    5531  0.00001.000000  0.0000
CBEAM       5205       5    5531    5530  0.00001.000000  0.0000
CBEAM       5206       5    5530    5529  0.00001.000000  0.0000
CBEAM       5207       5    5529    5528  0.00001.000000  0.0000
CBEAM       5208       5    5528    5527  0.00001.000000  0.0000
CBEAM       5209       5    5527    5526  0.00001.000000  0.0000
CBEAM       5210       5    5526    5525  0.00001.000000  0.0000
CBEAM       5211       5    5525    5524  0.00001.000000  0.0000
CBEAM       5212       5    5524    5523  0.00001.000000  0.0000
CBEAM       5213       5    5523    5522  0.00001.000000  0.0000
CBEAM       5214       5    5522    5521  0.00001.000000  0.0000
CBEAM       5215       5    5521    5520  0.00001.000000  0.0000
CBEAM       5216       5    5520    5519  0.00001.000000  0.0000
CBEAM       5217       5    5519    5518  0.00001.000000  0.0000
CBEAM       5218       5    5518    5517  0.00001.000000  0.0000
CBEAM       5219       5    5517    5516  0.00001.000000  0.0000
CBEAM       5220       5    5516    5515  0.00001.000000  0.0000
CBEAM       5221       5    5515    5514  0.00001.000000  0.0000
CBEAM       5222       5    5514    5513  0.00001.000000  0.0000
CBEAM       5223       5    5513    5512  0.00001.000000  0.0000
CBEAM       5224       5    5512    5511  0.00001.000000  0.0000
CBEAM       5225       5    5511    5510  0.00001.000000  0.0000
CBEAM       5226       5    5510    5509  0.00001.000000  0.0000
CBEAM       5227       5    5509    5508  0.00001.000000  0.0000
CBEAM       5228       5    5508    5507  0.00001.000000  0.0000
CBEAM       5229       5    5507    5506  0.00001.000000  0.0000
CBEAM       5230       5    5506    5505  0.00001.000000  0.0000
CBEAM       5231       5    5505    5504  0.00001.000000  0.0000
CBEAM       5232       5    5504    5503  0.00001.000000  0.0000
CBEAM       5233       5    5503    5502  0.00001.000000  0.0000
CBEAM       5234       5    5502    5501  0.00001.000000  0.0000
CBEAM       5235       5    5501    5500  0.00001.000000  0.0000
CBEAM       5236       5    5500    5499  0.00001.000000  0.0000
CBEAM       5237       5    5499    5498  0.00001.000000  0.0000
CBEAM       5238       5    5498    5497  0.00001.000000  0.0000
CBEAM       5239       5    5497    5496  0.00001.000000  0.0000
CBEAM       5240       5    5496    5495  0.00001.000000  0.0000
CBEAM       5241       5    5495    5494  0.00001.000000  0.0000
CBEAM       5242       5    5494    5493  0.00001.000000  0.0000
CBEAM       5243       5    5493    5492  0.00001.000000  0.0000
CBEAM       5244       5    5492    5491  0.00001.000000  0.0000
CBEAM       5245       5    5491    5490  0.00001.000000  0.0000
CBEAM       5246       5    5490    5489  0.00001.000000  0.0000
CBEAM       5247       5    5489    5488  0.00001.000000  0.0000
CBEAM       5248       5    5488    5487  0.00001.000000  0.0000
CBEAM       5249       5    5487    5486  0.00001.000000  0.0000
CBEAM       5250       5    5486    5485  0.00001.000000  0.0000
CBEAM       5251       5    5485    5484  0.00001.000000  0.0000
CBEAM       5252       5    5484    5483  0.00001.000000  0.0000
CBEAM       5253       5    5483    5482  0.00001.000000  0.0000
CBEAM       5254       5    5482    5481  0.00001.000000  0.0000
CBEAM       5255       5    5481    5480  0.00001.000000  0.0000
CBEAM       5256       5    5480    5479  0.00001.000000  0.0000
CBEAM       5257       5    5479    5478  0.00001.000000  0.0000
CBEAM       5258       5    5478    5477  0.00001.000000  0.0000
CBEAM       5259       5    5477    5476  0.00001.000000  0.0000
CBEAM       5260       5    5476    5475  0.00001.000000  0.0000
CBEAM       5261       5    5475    5474  0.00001.000000  0.0000
CBEAM       5262       5    5474    5473  0.00001.000000  0.0000
CBEAM       5263       5    5473    5472  0.00001.000000  0.0000
CBEAM       5264       5    5472    5471  0.00001.000000  0.0000
CBEAM       5265       5    5471    5470  0.00001.000000  0.0000
CBEAM       5266       5    5470    5469  0.00001.000000  0.0000
CBEAM       5267       5    5469    5468  0.00001.000000  0.0000
CBEAM       5268       5    5468    5467  0.00001.000000  0.0000
CBEAM       5269       5    5467    5466  0.00001.000000  0.0000
CBEAM       5270       5    5466    5465  0.00001.000000  0.0000
CBEAM       5271       5    5465    5464  0.00001.000000  0.0000
CBEAM       5272       5    5464    5463  0.00001.000000  0.0000
CBEAM       5273       5    5463    5462  0.00001.000000  0.0000
CBEAM       5274       5    5462    5461  0.00001.000000  0.0000
CBEAM       5275       5    5461    5460  0.00001.000000  0.0000
CBEAM       5276       5    5460    5459  0.00001.000000  0.0000
CBEAM       5277       5    5459    5458  0.00001.000000  0.0000
CBEAM       5278       5    5458    5457  0.00001.000000  0.0000
CBEAM       5279       5    5457    5456  0.00001.000000  0.0000
CBEAM       5280       5    5456    5455  0.00001.000000  0.0000
CBEAM       5281       5    5455    5454  0.00001.000000  0.0000
CBEAM       5282       5    5454    5453  0.00001.000000  0.0000
CBEAM       5283       5    5453    5452  0.00001.000000  0.0000
CBEAM       5284       5    5452    5451  0.00001.000000  0.0000
CBEAM       5285       5    5451    5450  0.00001.000000  0.0000
CBEAM       5286       5    5450    5449  0.00001.000000  0.0000
CBEAM       5287       5    5449    5448  0.00001.000000  0.0000
CBEAM       5288       5    5448    5447  0.00001.000000  0.0000
CBEAM       5289       5    5447    5446  0.00001.000000  0.0000
CBEAM       5290       5    5446    5445  0.00001.000000  0.0000
CBEAM       5291       5    5445    5444  0.00001.000000  0.0000
CBEAM       5292       5    5444    5443  0.00001.000000  0.0000
CBEAM       5293       5    5443    5442  0.00001.000000  0.0000
CBEAM       5294       5    5442    5441  0.00001.000000  0.0000
CBEAM       5295       5    5441    5440  0.00001.000000  0.0000
CBEAM       5296       5    5440    5439  0.00001.000000  0.0000
CBEAM       5297       5    5439    5438  0.00001.000000  0.0000
CBEAM       5298       5    5438    5437  0.00001.000000  0.0000
CBEAM       5299       5    5437    5436  0.00001.000000  0.0000
CBEAM       5300       5    5436    5435  0.00001.000000  0.0000
CBEAM       5301       5    5435    5434  0.00001.000000  0.0000
CBEAM       5302       5    5434    5433  0.00001.000000  0.0000
CBEAM       5303       5    5433    5432  0.00001.000000  0.0000
CBEAM       5304       5    5432    5431  0.00001.000000  0.0000
CBEAM       5305       5    5431    5430  0.00001.000000  0.0000
CBEAM       5306       5    5430    5429  0.00001.000000  0.0000
CBEAM       5307       5    5429    5428  0.00001.000000  0.0000
CBEAM       5308       5    5428    5427  0.00001.000000  0.0000
CBEAM       5309       5    5427    5426  0.00001.000000  0.0000
CBEAM       5310       5    5426    5425  0.00001.000000  0.0000
CBEAM       5311       5    5425    5424  0.00001.000000  0.0000
CBEAM       5312       5    5424    5423  0.00001.000000  0.0000
CBEAM       5313       5    5423    5422  0.00001.000000  0.0000
CBEAM       5314       5    5422    5421  0.00001.000000  0.0000
CBEAM       5315       5    5421    5420  0.00001.000000  0.0000
CBEAM       5316       5    5420    5419  0.00001.000000  0.0000
CBEAM       5317       5    5419    5418  0.00001.000000  0.0000
CBEAM       5318       5    5418    5417  0.00001.000000  0.0000
CBEAM       5319       5    5417    5416  0.00001.000000  0.0000
CBEAM       5320       5    5416    5415  0.00001.000000  0.0000
CBEAM       5321       5    5415    5414  0.00001.000000  0.0000
CBEAM       5322       5    5414    5413  0.00001.000000  0.0000
CBEAM       5323       5    5413    5412  0.00001.000000  0.0000
CBEAM       5324       5    5412    5411  0.00001.000000  0.0000
CBEAM       5325       5    5411    5410  0.00001.000000  0.0000
CBEAM       5326       5    5410    5409  0.00001.000000  0.0000
CBEAM       5327       5    5409    5408  0.00001.000000  0.0000
CBEAM       5328       5    5408    5407  0.00001.000000  0.0000
CBEAM       5329       5    5407    5406  0.00001.000000  0.0000
CBEAM       5330       5    5406    5405  0.00001.000000  0.0000
CBEAM       5331       5    5405    5404  0.00001.000000  0.0000
CBEAM       5332       5    5404    5403  0.00001.000000  0.0000
CBEAM       5333       5    5403    5402  0.00001.000000  0.0000
CBEAM       5334       5    5402    5401  0.00001.000000  0.0000
CBEAM       5335       5    5401    5400  0.00001.000000  0.0000
CBEAM       5336       5    5400    5399  0.00001.000000  0.0000
CBEAM       5337       5    5399    5398  0.00001.000000  0.0000
CBEAM       5338       5    5398    5397  0.00001.000000  0.0000
CBEAM       5339       5    5397    5396  0.00001.000000  0.0000
CBEAM       5340       5    5396    5395  0.00001.000000  0.0000
CBEAM       5341       5    5395    5394  0.00001.000000  0.0000
CBEAM       5342       5    5394    5393  0.00001.000000  0.0000
CBEAM       5343       5    5393    5392  0.00001.000000  0.0000
CBEAM       5344       5    5392    5391  0.00001.000000  0.0000
CBEAM       5345       5    5391    5390  0.00001.000000  0.0000
CBEAM       5346       5    5390    5389  0.00001.000000  0.0000
CBEAM       5347       5    5389    5388  0.00001.000000  0.0000
CBEAM       5348       5    5388    5387  0.00001.000000  0.0000
CBEAM       5349       5    5387    5386  0.00001.000000  0.0000
CBEAM       5350       5    5386    5385  0.00001.000000  0.0000
CBEAM       5351       5    5385    5384  0.00001.000000  0.0000
CBEAM       5352       5    5384    5383  0.00001.000000  0.0000
CBEAM       5353       5    5383    5382  0.00001.000000  0.0000
CBEAM       5354       5    5382    5381  0.00001.000000  0.0000
CBEAM       5355       5    5381    5380  0.00001.000000  0.0000
CBEAM       5356       5    5380    5379  0.00001.000000  0.0000
CBEAM       5357       5    5379    5378  0.00001.000000  0.0000
CBEAM       5358       5    5378    5377  0.00001.000000  0.0000
CBEAM       5359       5    5377    5376  0.00001.000000  0.0000
CBEAM       5360       5    5376    5375  0.00001.000000  0.0000
CBEAM       5361       5    5375    5374  0.00001.000000  0.0000
CBEAM       5362       5    5374    5373  0.00001.000000  0.0000
CBEAM       5363       5    5373    5372  0.00001.000000  0.0000
CBEAM       5364       5    5372    5371  0.00001.000000  0.0000
CBEAM       5365       5    5371    5370  0.00001.000000  0.0000
CBEAM       5366       5    5370    5369  0.00001.000000  0.0000
CBEAM       5367       5    5369    5368  0.00001.000000  0.0000
CBEAM       5368       5    5368    5367  0.00001.000000  0.0000
CBEAM       5369       5    5367    5366  0.00001.000000  0.0000
CBEAM       5370       5    5366    5365  0.00001.000000  0.0000
CBEAM       5371       5    5365    5364  0.00001.000000  0.0000
CBEAM       5372       5    5364    5363  0.00001.000000  0.0000
CBEAM       5373       5    5363    5362  0.00001.000000  0.0000
CBEAM       5374       5    5362    5361  0.00001.000000  0.0000
CBEAM       5375       5    5361    5360  0.00001.000000  0.0000
CBEAM       5376       5    5360    5359  0.00001.000000  0.0000
CBEAM       5377       5    5359    5358  0.00001.000000  0.0000
CBEAM       5378       5    5358    5357  0.00001.000000  0.0000
CBEAM       5379       5    5357    5356  0.00001.000000  0.0000
CBEAM       5380       5    5356    5355  0.00001.000000  0.0000
CBEAM       5381       5    5355    5354  0.00001.000000  0.0000
CBEAM       5382       5    5354    5353  0.00001.000000  0.0000
CBEAM       5383       5    5353    5352  0.00001.000000  0.0000
CBEAM       5384       5    5352    5351  0.00001.000000  0.0000
CBEAM       5385       5    5351    5350  0.00001.000000  0.0000
CBEAM       5386       5    5350    5349  0.00001.000000  0.0000
CBEAM       5387       5    5349    5348  0.00001.000000  0.0000
CBEAM       5388       5    5348    5347  0.00001.000000  0.0000
CBEAM       5389       5    5347    5346  0.00001.000000  0.0000
CBEAM       5390       5    5346    5345  0.00001.000000  0.0000
CBEAM       5391       5    5345    5344  0.00001.000000  0.0000
CBEAM       5392       5    5344    5343  0.00001.000000  0.0000
CBEAM       5393       5    5343    5342  0.00001.000000  0.0000
CBEAM       5394       5    5342    5341  0.00001.000000  0.0000
CBEAM       5395       5    5341    5340  0.00001.000000  0.0000
CBEAM       5396       5    5340    5339  0.00001.000000  0.0000
CBEAM       5397       5    5339    5338  0.00001.000000  0.0000
CBEAM       5398       5    5338    5337  0.00001.000000  0.0000
CBEAM       5399       5    5337    5336  0.00001.000000  0.0000
CBEAM       5400       5    5336    5335  0.00001.000000  0.0000
CBEAM       5401       5    5335    5334  0.00001.000000  0.0000
CBEAM       5402       5    5334    5333  0.00001.000000  0.0000
CBEAM       5403       5    5333    5332  0.00001.000000  0.0000
CBEAM       5404       5    5332    5331  0.00001.000000  0.0000
CBEAM       5405       5    5331    5330  0.00001.000000  0.0000
CBEAM       5406       5    5330    5329  0.00001.000000  0.0000
CBEAM       5407       5    5329    5328  0.00001.000000  0.0000
CBEAM       5408       5    5328    5327  0.00001.000000  0.0000
CBEAM       5409       5    5327    5326  0.00001.000000  0.0000
CBEAM       5410       5    5326    5325  0.00001.000000  0.0000
CBEAM       5411       5    5325    5324  0.00001.000000  0.0000
CBEAM       5412       5    5324    5323  0.00001.000000  0.0000
CBEAM       5413       5    5323    5322  0.00001.000000  0.0000
CBEAM       5414       5    5322    5321  0.00001.000000  0.0000
CBEAM       5415       5    5321    5320  0.00001.000000  0.0000
CBEAM       5416       5    5320    5319  0.00001.000000  0.0000
CBEAM       5417       5    5319    5318  0.00001.000000  0.0000
CBEAM       5418       5    5318    5317  0.00001.000000  0.0000
CBEAM       5419       5    5317    5316  0.00001.000000  0.0000
CBEAM       5420       5    5316    5315  0.00001.000000  0.0000
CBEAM       5421       5    5315    5314  0.00001.000000  0.0000
CBEAM       5422       5    5314    5313  0.00001.000000  0.0000
CBEAM       5423       5    5313    5312  0.00001.000000  0.0000
CBEAM       5424       5    5312    5311  0.00001.000000  0.0000
CBEAM       5425       5    5311    5310  0.00001.000000  0.0000
CBEAM       5426       5    5310    5309  0.00001.000000  0.0000
CBEAM       5427       5    5309    5308  0.00001.000000  0.0000
CBEAM       5428       5    5308    5307  0.00001.000000  0.0000
CBEAM       5429       5    5307    5306  0.00001.000000  0.0000
CBEAM       5430       5    5306    5305  0.00001.000000  0.0000
CBEAM       5431       5    5305    5304  0.00001.000000  0.0000
CBEAM       5432       5    5304    5303  0.00001.000000  0.0000
CBEAM       5433       5    5303    5302  0.00001.000000  0.0000
CBEAM       5434       5    5302    5301  0.00001.000000  0.0000
CBEAM       5435       5    5301    5300  0.00001.000000  0.0000
CBEAM       5436       5    5300    5299  0.00001.000000  0.0000
CBEAM       5437       5    5299    5298  0.00001.000000  0.0000
CBEAM       5438       5    5298    5297  0.00001.000000  0.0000
CBEAM       5439       5    5297    5296  0.00001.000000  0.0000
CBEAM       5440       5    5296    5295  0.00001.000000  0.0000
CBEAM       5441       5    5295    5294  0.00001.000000  0.0000
CBEAM       5442       5    5294    5293  0.00001.000000  0.0000
CBEAM       5443       5    5293    5292  0.00001.000000  0.0000
CBEAM       5444       5    5292    5291  0.00001.000000  0.0000
CBEAM       5445       5    5291    5290  0.00001.000000  0.0000
CBEAM       5446       5    5290    5289  0.00001.000000  0.0000
CBEAM       5447       5    5289    5288  0.00001.000000  0.0000
CBEAM       5448       5    5288    5287  0.00001.000000  0.0000
CBEAM       5449       5    5287    5286  0.00001.000000  0.0000
CBEAM       5450       5    5286    5285  0.00001.000000  0.0000
CBEAM       5451       5    5285    5284  0.00001.000000  0.0000
CBEAM       5452       5    5284    5283  0.00001.000000  0.0000
CBEAM       5453       5    5283    5282  0.00001.000000  0.0000
CBEAM       5454       5    5282    5281  0.00001.000000  0.0000
CBEAM       5455       5    5281    5280  0.00001.000000  0.0000
CBEAM       5456       5    5280    5279  0.00001.000000  0.0000
CBEAM       5457       5    5279    5278  0.00001.000000  0.0000
CBEAM       5458       5    5278    5277  0.00001.000000  0.0000
CBEAM       5459       5    5277    5276  0.00001.000000  0.0000
CBEAM       5460       5    5276    5275  0.00001.000000  0.0000
CBEAM       5461       5    5275    5274  0.00001.000000  0.0000
CBEAM       5462       5    5274    5273  0.00001.000000  0.0000
CBEAM       5463       5    5273    5272  0.00001.000000  0.0000
CBEAM       5464       5    5272    5271  0.00001.000000  0.0000
CBEAM       5465       5    5271    5270  0.00001.000000  0.0000
CBEAM       5466       5    5270    5269  0.00001.000000  0.0000
CBEAM       5467       5    5269    5268  0.00001.000000  0.0000
CBEAM       5468       5    5268    5267  0.00001.000000  0.0000
CBEAM       5469       5    5267    5266  0.00001.000000  0.0000
CBEAM       5470       5    5266    5265  0.00001.000000  0.0000
CBEAM       5471       5    5265    5264  0.00001.000000  0.0000
CBEAM       5472       5    5264    5263  0.00001.000000  0.0000
CBEAM       5473       5    5263    5262  0.00001.000000  0.0000
CBEAM       5474       5    5262    5261  0.00001.000000  0.0000
CBEAM       5475       5    5261    5260  0.00001.000000  0.0000
CBEAM       5476       5    5260    5259  0.00001.000000  0.0000
CBEAM       5477       5    5259    5258  0.00001.000000  0.0000
CBEAM       5478       5    5258    5257  0.00001.000000  0.0000
CBEAM       5479       5    5257    5256  0.00001.000000  0.0000
CBEAM       5480       5    5256    5255  0.00001.000000  0.0000
CBEAM       5481       5    5255    5254  0.00001.000000  0.0000
CBEAM       5482       5    5254    5253  0.00001.000000  0.0000
CBEAM       5483       5    5253    5252  0.00001.000000  0.0000
CBEAM       5484       5    5252    5251  0.00001.000000  0.0000
CBEAM       5485       5    5251    5250  0.00001.000000  0.0000
CBEAM       5486       5    5250    5249  0.00001.000000  0.0000
CBEAM       5487       5    5249    5248  0.00001.000000  0.0000
CBEAM       5488       5    5248    5247  0.00001.000000  0.0000
CBEAM       5489       5    5247    5246  0.00001.000000  0.0000
CBEAM       5490       5    5246    5245  0.00001.000000  0.0000
CBEAM       5491       5    5245    5244  0.00001.000000  0.0000
CBEAM       5492       5    5244    5243  0.00001.000000  0.0000
CBEAM       5493       5    5243    5242  0.00001.000000  0.0000
CBEAM       5494       5    5242    5241  0.00001.000000  0.0000
CBEAM       5495       5    5241    5240  0.00001.000000  0.0000
CBEAM       5496       5    5240    5239  0.00001.000000  0.0000
CBEAM       5497       5    5239    5238  0.00001.000000  0.0000
CBEAM       5498       5    5238    5237  0.00001.000000  0.0000
CBEAM       5499       5    5237    5236  0.00001.000000  0.0000
CBEAM       5500       5    5236    5235  0.00001.000000  0.0000
CBEAM       5501       5    5235    5234  0.00001.000000  0.0000
CBEAM       5502       5    5234    5233  0.00001.000000  0.0000
CBEAM       5503       5    5233    5232  0.00001.000000  0.0000
CBEAM       5504       5    5232    5231  0.00001.000000  0.0000
CBEAM       5505       5    5231    5230  0.00001.000000  0.0000
CBEAM       5506       5    5230    5229  0.00001.000000  0.0000
CBEAM       5507       5    5229    5228  0.00001.000000  0.0000
CBEAM       5508       5    5228    5227  0.00001.000000  0.0000
CBEAM       5509       5    5227    5226  0.00001.000000  0.0000
CBEAM       5510       5    5226    5225  0.00001.000000  0.0000
CBEAM       5511       5    5225    5224  0.00001.000000  0.0000
CBEAM       5512       5    5224    5223  0.00001.000000  0.0000
CBEAM       5513       5    5223    5222  0.00001.000000  0.0000
CBEAM       5514       5    5222    5221  0.00001.000000  0.0000
CBEAM       5515       5    5221    5220  0.00001.000000  0.0000
CBEAM       5516       5    5220    5219  0.00001.000000  0.0000
CBEAM       5517       5    5219    5218  0.00001.000000  0.0000
CBEAM       5518       5    5218    5217  0.00001.000000  0.0000
CBEAM       5519       5    5217    5216  0.00001.000000  0.0000
CBEAM       5520       5    5216    5215  0.00001.000000  0.0000
CBEAM       5521       5    5215    5214  0.00001.000000  0.0000
CBEAM       5522       5    5214    5213  0.00001.000000  0.0000
CBEAM       5523       5    5213    5212  0.00001.000000  0.0000
CBEAM       5524       5    5212    5211  0.00001.000000  0.0000
CBEAM       5525       5    5211    5210  0.00001.000000  0.0000
CBEAM       5526       5    5210    5209  0.00001.000000  0.0000
CBEAM       5527       5    5209    5208  0.00001.000000  0.0000
CBEAM       5528       5    5208    5207  0.00001.000000  0.0000
CBEAM       5529       5    5207    5206  0.00001.000000  0.0000
CBEAM       5530       5    5206    5205  0.00001.000000  0.0000
CBEAM       5531       5    5205    5204  0.00001.000000  0.0000
CBEAM       5532       5    5204    5203  0.00001.000000  0.0000
CBEAM       5533       5    5203    5202  0.00001.000000  0.0000
CBEAM       5534       5    5202    5201  0.00001.000000  0.0000
CBEAM       5535       5    5201    5200  0.00001.000000  0.0000
CBEAM       5536       5    5200    5199  0.00001.000000  0.0000
CBEAM       5537       5    5199    5198  0.00001.000000  0.0000
CBEAM       5538       5    5198    5197  0.00001.000000  0.0000
CBEAM       5539       5    5197    5196  0.00001.000000  0.0000
CBEAM       5540       5    5196    5195  0.00001.000000  0.0000
CBEAM       5541       5    5195    5194  0.00001.000000  0.0000
CBEAM       5542       5    5194    5193  0.00001.000000  0.0000
CBEAM       5543       5    5193    5192  0.00001.000000  0.0000
CBEAM       5544       5    5192    5191  0.00001.000000  0.0000
CBEAM       5545       5    5191    5190  0.00001.000000  0.0000
CBEAM       5546       5    5190    5189  0.00001.000000  0.0000
CBEAM       5547       5    5189    5188  0.00001.000000  0.0000
CBEAM       5548       5    5188    5187  0.00001.000000  0.0000
CBEAM       5549       5    5187    5186  0.00001.000000  0.0000
CBEAM       5550       5    5186    5185  0.00001.000000  0.0000
CBEAM       5551       5    5185    5184  0.00001.000000  0.0000
CBEAM       5552       5    5184    5183  0.00001.000000  0.0000
CBEAM       5553       5    5183    5182  0.00001.000000  0.0000
CBEAM       5554       5    5182    5181  0.00001.000000  0.0000
CBEAM       5555       5    5181    5180  0.00001.000000  0.0000
CBEAM       5556       5    5180    5179  0.00001.000000  0.0000
CBEAM       5557       5    5179    5178  0.00001.000000  0.0000
CBEAM       5558       5    5178    5177  0.00001.000000  0.0000
CBEAM       5559       5    5177    5176  0.00001.000000  0.0000
CBEAM       5560       5    5176    5175  0.00001.000000  0.0000
CBEAM       5561       5    5175    5174  0.00001.000000  0.0000
CBEAM       5562       5    5174    5173  0.00001.000000  0.0000
CBEAM       5563       5    5173    5172  0.00001.000000  0.0000
CBEAM       5564       5    5172    5171  0.00001.000000  0.0000
CBEAM       5565       5    5171    5170  0.00001.000000  0.0000
CBEAM       5566       5    5170    5169  0.00001.000000  0.0000
CBEAM       5567       5    5169    5168  0.00001.000000  0.0000
CBEAM       5568       5    5168    5167  0.00001.000000  0.0000
CBEAM       5569       5    5167    5166  0.00001.000000  0.0000
CBEAM       5570       5    5166    5165  0.00001.000000  0.0000
CBEAM       5571       5    5165    5164  0.00001.000000  0.0000
CBEAM       5572       5    5164    5163  0.00001.000000  0.0000
CBEAM       5573       5    5163    5162  0.00001.000000  0.0000
CBEAM       5574       5    5162    5161  0.00001.000000  0.0000
CBEAM       5575       5    5161    5160  0.00001.000000  0.0000
CBEAM       5576       5    5160    5159  0.00001.000000  0.0000
CBEAM       5577       5    5159    5158  0.00001.000000  0.0000
CBEAM       5578       5    5158    5157  0.00001.000000  0.0000
CBEAM       5579       5    5157    5156  0.00001.000000  0.0000
CBEAM       5580       5    5156    5155  0.00001.000000  0.0000
CBEAM       5581       5    5155    5154  0.00001.000000  0.0000
CBEAM       5582       5    5154    5153  0.00001.000000  0.0000
CBEAM       5583       5    5153    5152  0.00001.000000  0.0000
CBEAM       5584       5    5152    5151  0.00001.000000  0.0000
CBEAM       5585       5    5151    5150  0.00001.000000  0.0000
CBEAM       5586       5    5150    5149  0.00001.000000  0.0000
CBEAM       5587       5    5149    5148  0.00001.000000  0.0000
CBEAM       5588       5    5148    5147  0.00001.000000  0.0000
CBEAM       5589       5    5147    5146  0.00001.000000  0.0000
CBEAM       5590       5    5146    5145  0.00001.000000  0.0000
CBEAM       5591       5    5145    5144  0.00001.000000  0.0000
CBEAM       5592       5    5144    5143  0.00001.000000  0.0000
CBEAM       5593       5    5143    5142  0.00001.000000  0.0000
CBEAM       5594       5    5142    5141  0.00001.000000  0.0000
CBEAM       5595       5    5141    5140  0.00001.000000  0.0000
CBEAM       5596       5    5140    5139  0.00001.000000  0.0000
CBEAM       5597       5    5139    5138  0.00001.000000  0.0000
CBEAM       5598       5    5138    5137  0.00001.000000  0.0000
CBEAM       5599       5    5137    5136  0.00001.000000  0.0000
CBEAM       5600       5    5136    5135  0.00001.000000  0.0000
CBEAM       5601       5    5135    5134  0.00001.000000  0.0000
CBEAM       5602       5    5134    5133  0.00001.000000  0.0000
CBEAM       5603       5    5133    5132  0.00001.000000  0.0000
CBEAM       5604       5    5132    5131  0.00001.000000  0.0000
CBEAM       5605       5    5131    5130  0.00001.000000  0.0000
CBEAM       5606       5    5130    5129  0.00001.000000  0.0000
CBEAM       5607       5    5129    5128  0.00001.000000  0.0000
CBEAM       5608       5    5128    5127  0.00001.000000  0.0000
CBEAM       5609       5    5127    5126  0.00001.000000  0.0000
CBEAM       5610       5    5126    5125  0.00001.000000  0.0000
CBEAM       5611       5    5125    5124  0.00001.000000  0.0000
CBEAM       5612       5    5124    5123  0.00001.000000  0.0000
CBEAM       5613       5    5123    5122  0.00001.000000  0.0000
CBEAM       5614       5    5122    5121  0.00001.000000  0.0000
CBEAM       5615       5    5121    5120  0.00001.000000  0.0000
CBEAM       5616       5    5120    5119  0.00001.000000  0.0000
CBEAM       5617       5    5119    5118  0.00001.000000  0.0000
CBEAM       5618       5    5118    5117  0.00001.000000  0.0000
CBEAM       5619       5    5117    5116  0.00001.000000  0.0000
CBEAM       5620       5    5116    5115  0.00001.000000  0.0000
CBEAM       5621       5    5115    5114  0.00001.000000  0.0000
CBEAM       5622       5    5114    5113  0.00001.000000  0.0000
CBEAM       5623       5    5113    5112  0.00001.000000  0.0000
CBEAM       5624       5    5112    5111  0.00001.000000  0.0000
CBEAM       5625       5    5111    5110  0.00001.000000  0.0000
CBEAM       5626       5    5110    5109  0.00001.000000  0.0000
CBEAM       5627       5    5109    5108  0.00001.000000  0.0000
CBEAM       5628       5    5108    5107  0.00001.000000  0.0000
CBEAM       5629       5    5107    5106  0.00001.000000  0.0000
CBEAM       5630       5    5106    5105  0.00001.000000  0.0000
CBEAM       5631       5    5105    5104  0.00001.000000  0.0000
CBEAM       5632       5    5104    5103  0.00001.000000  0.0000
CBEAM       5633       5    5103    5102  0.00001.000000  0.0000
CBEAM       5634       5    5102    5101  0.00001.000000  0.0000
CBEAM       5635       5    5101    5100  0.00001.000000  0.0000
CBEAM       5636       5    5100    5099  0.00001.000000  0.0000
CBEAM       5637       5    5099    5098  0.00001.000000  0.0000
CBEAM       5638       5    5098    5097  0.00001.000000  0.0000
CBEAM       5639       5    5097    5096  0.00001.000000  0.0000
CBEAM       5640       5    5096    5095  0.00001.000000  0.0000
CBEAM       5641       5    5095    5094  0.00001.000000  0.0000
CBEAM       5642       5    5094    5093  0.00001.000000  0.0000
CBEAM       5643       5    5093    5092  0.00001.000000  0.0000
CBEAM       5644       5    5092    5091  0.00001.000000  0.0000
CBEAM       5645       5    5091    5090  0.00001.000000  0.0000
CBEAM       5646       5    5090    5089  0.00001.000000  0.0000
CBEAM       5647       5    5089    5088  0.00001.000000  0.0000
CBEAM       5648       5    5088    5087  0.00001.000000  0.0000
CBEAM       5649       5    5087    5086  0.00001.000000  0.0000
CBEAM       5650       5    5086    5085  0.00001.000000  0.0000
CBEAM       5651       5    5085    5084  0.00001.000000  0.0000
CBEAM       5652       5    5084    5083  0.00001.000000  0.0000
CBEAM       5653       5    5083    5082  0.00001.000000  0.0000
CBEAM       5654       5    5082    5081  0.00001.000000  0.0000
CBEAM       5655       5    5081    5080  0.00001.000000  0.0000
CBEAM       5656       5    5080    5079  0.00001.000000  0.0000
CBEAM       5657       5    5079    5078  0.00001.000000  0.0000
CBEAM       5658       5    5078    5077  0.00001.000000  0.0000
CBEAM       5659       5    5077    5076  0.00001.000000  0.0000
CBEAM       5660       5    5076    5075  0.00001.000000  0.0000
CBEAM       5661       5    5075    5074  0.00001.000000  0.0000
CBEAM       5662       5    5074    5073  0.00001.000000  0.0000
CBEAM       5663       5    5073    5072  0.00001.000000  0.0000
CBEAM       5664       5    5072    5071  0.00001.000000  0.0000
CBEAM       5665       5    5071    5070  0.00001.000000  0.0000
CBEAM       5666       5    5070    5069  0.00001.000000  0.0000
CBEAM       5667       5    5069    5068  0.00001.000000  0.0000
CBEAM       5668       5    5068    5067  0.00001.000000  0.0000
CBEAM       5669       5    5067    5066  0.00001.000000  0.0000
CBEAM       5670       5    5066    5065  0.00001.000000  0.0000
CBEAM       5671       5    5065    5064  0.00001.000000  0.0000
CBEAM       5672       5    5064    5063  0.00001.000000  0.0000
CBEAM       5673       5    5063    5062  0.00001.000000  0.0000
CBEAM       5674       5    5062    5061  0.00001.000000  0.0000
CBEAM       5675       5    5061    5060  0.00001.000000  0.0000
CBEAM       5676       5    5060    5059  0.00001.000000  0.0000
CBEAM       5677       5    5059    5058  0.00001.000000  0.0000
CBEAM       5678       5    5058    5057  0.00001.000000  0.0000
CBEAM       5679       5    5057    5056  0.00001.000000  0.0000
CBEAM       5680       5    5056    5055  0.00001.000000  0.0000
CBEAM       5681       5    5055    5054  0.00001.000000  0.0000
CBEAM       5682       5    5054    5053  0.00001.000000  0.0000
CBEAM       5683       5    5053    5052  0.00001.000000  0.0000
CBEAM       5684       5    5052    5051  0.00001.000000  0.0000
CBEAM       5685       5    5051    5050  0.00001.000000  0.0000
CBEAM       5686       5    5050    5049  0.00001.000000  0.0000
CBEAM       5687       5    5049    5048  0.00001.000000  0.0000
CBEAM       5688       5    5048    5047  0.00001.000000  0.0000
CBEAM       5689       5    5047    5046  0.00001.000000  0.0000
CBEAM       5690       5    5046    5045  0.00001.000000  0.0000
CBEAM       5691       5    5045    5044  0.00001.000000  0.0000
CBEAM       5692       5    5044    5043  0.00001.000000  0.0000
CBEAM       5693       5    5043    5042  0.00001.000000  0.0000
CBEAM       5694       5    5042    5041  0.00001.000000  0.0000
CBEAM       5695       5    5041    5040  0.00001.000000  0.0000
CBEAM       5696       5    5040    5039  0.00001.000000  0.0000
CBEAM       5697       5    5039    5038  0.00001.000000  0.0000
CBEAM       5698       5    5038    5037  0.00001.000000  0.0000
CBEAM       5699       5    5037    5036  0.00001.000000  0.0000
CBEAM       5700       5    5036    5035  0.00001.000000  0.0000
CBEAM       5701       5    5035    5034  0.00001.000000  0.0000
CBEAM       5702       5    5034    5033  0.00001.000000  0.0000
CBEAM       5703       5    5033    5032  0.00001.000000  0.0000
CBEAM       5704       5    5032    5031  0.00001.000000  0.0000
CBEAM       5705       5    5031    5030  0.00001.000000  0.0000
CBEAM       5706       5    5030    5029  0.00001.000000  0.0000
CBEAM       5707       5    5029    5028  0.00001.000000  0.0000
CBEAM       5708       5    5028    5027  0.00001.000000  0.0000
CBEAM       5709       5    5027    5026  0.00001.000000  0.0000
CBEAM       5710       5    5026    5025  0.00001.000000  0.0000
CBEAM       5711       5    5025    5024  0.00001.000000  0.0000
CBEAM       5712       5    5024    5023  0.00001.000000  0.0000
CBEAM       5713       5    5023    5022  0.00001.000000  0.0000
CBEAM       5714       5    5022    5021  0.00001.000000  0.0000
CBEAM       5715       5    5021    5020  0.00001.000000  0.0000
CBEAM       5716       5    5020    5019  0.00001.000000  0.0000
CBEAM       5717       5    5019    5018  0.00001.000000  0.0000
CBEAM       5718       5    5018    5017  0.00001.000000  0.0000
CBEAM       5719       5    5017    5016  0.00001.000000  0.0000
CBEAM       5720       5    5016    5015  0.00001.000000  0.0000
CBEAM       5721       5    5015    5014  0.00001.000000  0.0000
CBEAM       5722       5    5014    5013  0.00001.000000  0.0000
CBEAM       5723       5    5013    5012  0.00001.000000  0.0000
CBEAM       5724       5    5012    5011  0.00001.000000  0.0000
CBEAM       5725       5    5011    5010  0.00001.000000  0.0000
CBEAM       5726       5    5010    5009  0.00001.000000  0.0000
CBEAM       5727       5    5009    5008  0.00001.000000  0.0000
CBEAM       5728       5    5008    5007  0.00001.000000  0.0000
CBEAM       5729       5    5007    5006  0.00001.000000  0.0000
CBEAM       5730       5    5006    5005  0.00001.000000  0.0000
CBEAM       5731       5    5005    5004  0.00001.000000  0.0000
CBEAM       5732       5    5004    5003  0.00001.000000  0.0000
CBEAM       5733       5    5003    5002  0.00001.000000  0.0000
CBEAM       5734       5    5002    5001  0.00001.000000  0.0000
CBEAM       5735       5    5001    5000  0.00001.000000  0.0000
CBEAM       5736       5    5000    4999  0.00001.000000  0.0000
CBEAM       5737       5    4999    4998  0.00001.000000  0.0000
CBEAM       5738       5    4998    4997  0.00001.000000  0.0000
CBEAM       5739       5    4997    4996  0.00001.000000  0.0000
CBEAM       5740       5    4996    4995  0.00001.000000  0.0000
CBEAM       5741       5    4995    4994  0.00001.000000  0.0000
CBEAM       5742       5    4994    4993  0.00001.000000  0.0000
CBEAM       5743       5    4993    4992  0.00001.000000  0.0000
CBEAM       5744       5    4992    4991  0.00001.000000  0.0000
CBEAM       5745       5    4991    4990  0.00001.000000  0.0000
CBEAM       5746       5    4990    4989  0.00001.000000  0.0000
CBEAM       5747       5    4989    4988  0.00001.000000  0.0000
CBEAM       5748       5    4988    4987  0.00001.000000  0.0000
CBEAM       5749       5    4987    4986  0.00001.000000  0.0000
CBEAM       5750       5    4986    4985  0.00001.000000  0.0000
CBEAM       5751       5    4985    4984  0.00001.000000  0.0000
CBEAM       5752       5    4984    4983  0.00001.000000  0.0000
CBEAM       5753       5    4983    4982  0.00001.000000  0.0000
CBEAM       5754       5    4982    4981  0.00001.000000  0.0000
CBEAM       5755       5    4981    4980  0.00001.000000  0.0000
CBEAM       5756       5    4980    4979  0.00001.000000  0.0000
CBEAM       5757       5    4979    4978  0.00001.000000  0.0000
CBEAM       5758       5    4978    4977  0.00001.000000  0.0000
CBEAM       5759       5    4977    4976  0.00001.000000  0.0000
CBEAM       5760       5    4976    4975  0.00001.000000  0.0000
CBEAM       5761       5    4975    4974  0.00001.000000  0.0000
CBEAM       5762       5    4974    4973  0.00001.000000  0.0000
CBEAM       5763       5    4973    4972  0.00001.000000  0.0000
CBEAM       5764       5    4972    4971  0.00001.000000  0.0000
CBEAM       5765       5    4971    4970  0.00001.000000  0.0000
CBEAM       5766       5    4970    4969  0.00001.000000  0.0000
CBEAM       5767       5    4969    4968  0.00001.000000  0.0000
CBEAM       5768       5    4968    4967  0.00001.000000  0.0000
CBEAM       5769       5    4967    4966  0.00001.000000  0.0000
CBEAM       5770       5    4966    4965  0.00001.000000  0.0000
CBEAM       5771       5    4965    4964  0.00001.000000  0.0000
CBEAM       5772       5    4964    4963  0.00001.000000  0.0000
CBEAM       5773       5    4963    4962  0.00001.000000  0.0000
CBEAM       5774       5    4962    4961  0.00001.000000  0.0000
CBEAM       5775       5    4961    4960  0.00001.000000  0.0000
CBEAM       5776       5    4960    4959  0.00001.000000  0.0000
CBEAM       5777       5    4959    4958  0.00001.000000  0.0000
CBEAM       5778       5    4958    4957  0.00001.000000  0.0000
CBEAM       5779       5    4957    4956  0.00001.000000  0.0000
CBEAM       5780       5    4956    4955  0.00001.000000  0.0000
CBEAM       5781       5    4955    4954  0.00001.000000  0.0000
CBEAM       5782       5    4954    4953  0.00001.000000  0.0000
CBEAM       5783       5    4953    4952  0.00001.000000  0.0000
CBEAM       5784       5    4952    4951  0.00001.000000  0.0000
CBEAM       5785       5    4951    4950  0.00001.000000  0.0000
CBEAM       5786       5    4950    4949  0.00001.000000  0.0000
CBEAM       5787       5    4949    4948  0.00001.000000  0.0000
CBEAM       5788       5    4948    4947  0.00001.000000  0.0000
CBEAM       5789       5    4947    4946  0.00001.000000  0.0000
CBEAM       5790       5    4946    4945  0.00001.000000  0.0000
CBEAM       5791       5    4945    4944  0.00001.000000  0.0000
CBEAM       5792       5    4944    4943  0.00001.000000  0.0000
CBEAM       5793       5    4943    4942  0.00001.000000  0.0000
CBEAM       5794       5    4942    4941  0.00001.000000  0.0000
CBEAM       5795       5    4941    4940  0.00001.000000  0.0000
CBEAM       5796       5    4940    4939  0.00001.000000  0.0000
CBEAM       5797       5    4939    4938  0.00001.000000  0.0000
CBEAM       5798       5    4938    4937  0.00001.000000  0.0000
CBEAM       5799       5    4937    4936  0.00001.000000  0.0000
CBEAM       5800       5    4936    4935  0.00001.000000  0.0000
CBEAM       5801       5    4935    4934  0.00001.000000  0.0000
CBEAM       5802       5    4934    4933  0.00001.000000  0.0000
CBEAM       5803       5    4933    4932  0.00001.000000  0.0000
CBEAM       5804       5    4932    4931  0.00001.000000  0.0000
CBEAM       5805       5    4931    4930  0.00001.000000  0.0000
CBEAM       5806       5    4930    4929  0.00001.000000  0.0000
CBEAM       5807       5    4929    4928  0.00001.000000  0.0000
CBEAM       5808       5    4928    4927  0.00001.000000  0.0000
CBEAM       5809       5    4927    4926  0.00001.000000  0.0000
CBEAM       5810       5    4926    4925  0.00001.000000  0.0000
CBEAM       5811       5    4925    4924  0.00001.000000  0.0000
CBEAM       5812       5    4924    4923  0.00001.000000  0.0000
CBEAM       5813       5    4923    4922  0.00001.000000  0.0000
CBEAM       5814       5    4922    4921  0.00001.000000  0.0000
CBEAM       5815       5    4921    4920  0.00001.000000  0.0000
CBEAM       5816       5    4920    4919  0.00001.000000  0.0000
CBEAM       5817       5    4919    4918  0.00001.000000  0.0000
CBEAM       5818       5    4918    4917  0.00001.000000  0.0000
CBEAM       5819       5    4917    4916  0.00001.000000  0.0000
CBEAM       5820       5    4916    4915  0.00001.000000  0.0000
CBEAM       5821       5    4915    4914  0.00001.000000  0.0000
CBEAM       5822       5    4914    4913  0.00001.000000  0.0000
CBEAM       5823       5    4913    4912  0.00001.000000  0.0000
CBEAM       5824       5    4912    4911  0.00001.000000  0.0000
CBEAM       5825       5    4911    4910  0.00001.000000  0.0000
CBEAM       5826       5    4910    4909  0.00001.000000  0.0000
CBEAM       5827       5    4909    4908  0.00001.000000  0.0000
CBEAM       5828       5    4908    4907  0.00001.000000  0.0000
CBEAM       5829       5    4907    4906  0.00001.000000  0.0000
CBEAM       5830       5    4906    4905  0.00001.000000  0.0000
CBEAM       5831       5    4905    4904  0.00001.000000  0.0000
CBEAM       5832       5    4904    4903  0.00001.000000  0.0000
CBEAM       5833       5    4903    4902  0.00001.000000  0.0000
CBEAM       5834       5    4902    4901  0.00001.000000  0.0000
CBEAM       5835       5    4901    4900  0.00001.000000  0.0000
CBEAM       5836       5    4900    4899  0.00001.000000  0.0000
CBEAM       5837       5    4899    4898  0.00001.000000  0.0000
CBEAM       5838       5    4898    4897  0.00001.000000  0.0000
CBEAM       5839       5    4897    4896  0.00001.000000  0.0000
CBEAM       5840       5    4896    4895  0.00001.000000  0.0000
CBEAM       5841       5    4895    4894  0.00001.000000  0.0000
CBEAM       5842       5    4894    4893  0.00001.000000  0.0000
CBEAM       5843       5    4893    4892  0.00001.000000  0.0000
CBEAM       5844       5    4892    4891  0.00001.000000  0.0000
CBEAM       5845       5    4891    4890  0.00001.000000  0.0000
CBEAM       5846       5    4890    4889  0.00001.000000  0.0000
CBEAM       5847       5    4889    4888  0.00001.000000  0.0000
CBEAM       5848       5    4888    4887  0.00001.000000  0.0000
CBEAM       5849       5    4887    4886  0.00001.000000  0.0000
CBEAM       5850       5    4886    4885  0.00001.000000  0.0000
CBEAM       5851       5    4885    4884  0.00001.000000  0.0000
CBEAM       5852       5    4884    4883  0.00001.000000  0.0000
CBEAM       5853       5    4883    4882  0.00001.000000  0.0000
CBEAM       5854       5    4882    4881  0.00001.000000  0.0000
CBEAM       5855       5    4881    4880  0.00001.000000  0.0000
CBEAM       5856       5    4880    4879  0.00001.000000  0.0000
CBEAM       5857       5    4879    4878  0.00001.000000  0.0000
CBEAM       5858       5    4878    4877  0.00001.000000  0.0000
CBEAM       5859       5    4877    4876  0.00001.000000  0.0000
CBEAM       5860       5    4876    4875  0.00001.000000  0.0000
CBEAM       5861       5    4875    4874  0.00001.000000  0.0000
CBEAM       5862       5    4874    4873  0.00001.000000  0.0000
CBEAM       5863       5    4873    4872  0.00001.000000  0.0000
CBEAM       5864       5    4872    4871  0.00001.000000  0.0000
CBEAM       5865       5    4871    4870  0.00001.000000  0.0000
CBEAM       5866       5    4870    4869  0.00001.000000  0.0000
CBEAM       5867       5    4869    4868  0.00001.000000  0.0000
CBEAM       5868       5    4868    4867  0.00001.000000  0.0000
CBEAM       5869       5    4867    4866  0.00001.000000  0.0000
CBEAM       5870       5    4866    4865  0.00001.000000  0.0000
CBEAM       5871       5    4865    4864  0.00001.000000  0.0000
CBEAM       5872       5    4864    4863  0.00001.000000  0.0000
CBEAM       5873       5    4863    4862  0.00001.000000  0.0000
CBEAM       5874       5    4862    4861  0.00001.000000  0.0000
CBEAM       5875       5    4861    4860  0.00001.000000  0.0000
CBEAM       5876       5    4860    4859  0.00001.000000  0.0000
CBEAM       5877       5    4859    4858  0.00001.000000  0.0000
CBEAM       5878       5    4858    4857  0.00001.000000  0.0000
CBEAM       5879       5    4857    4856  0.00001.000000  0.0000
CBEAM       5880       5    4856    4855  0.00001.000000  0.0000
CBEAM       5881       5    4855    4854  0.00001.000000  0.0000
CBEAM       5882       5    4854    4853  0.00001.000000  0.0000
CBEAM       5883       5    4853    4852  0.00001.000000  0.0000
CBEAM       5884       5    4852    4851  0.00001.000000  0.0000
CBEAM       5885       5    4851    4850  0.00001.000000  0.0000
CBEAM       5886       5    4850    4849  0.00001.000000  0.0000
CBEAM       5887       5    4849    4848  0.00001.000000  0.0000
CBEAM       5888       5    4848    4847  0.00001.000000  0.0000
CBEAM       5889       5    4847    4846  0.00001.000000  0.0000
CBEAM       5890       5    4846    4845  0.00001.000000  0.0000
CBEAM       5891       5    4845    4844  0.00001.000000  0.0000
CBEAM       5892       5    4844    4843  0.00001.000000  0.0000
CBEAM       5893       5    4843    4842  0.00001.000000  0.0000
CBEAM       5894       5    4842    4841  0.00001.000000  0.0000
CBEAM       5895       5    4841    4840  0.00001.000000  0.0000
$*  Mesh Collector: RBE2 Collector(1)
$*  Mesh: connection_mesh(1)
RBE2        5896       1  123456    4840
$*  Mesh Collector: RBE2 Collector(2)
$*  Mesh: connection_mesh(2)
RBE2        5897       2  123456    5900    3629
$*  Mesh Collector: RBE2 Collector(3)
$*  Mesh: connection_mesh(3)
RBE2        5898       3  123456    4839    2328
$*  Mesh Collector: RBE2 Collector(4)
$*  Mesh: connection_mesh(4)
RBE2        5899       4  123456    3628     967
$*  Mesh Collector: RBE2 Collector(5)
$*  Mesh: connection_mesh(5)
RBE2        5900       5  123456    2327       6
$*
$* PROPERTY CARDS
$*
$*  Property: PBEAM1
$*  Section: S1
PBEAM          1       1 1555.001.9242+51.9242+5  0.00003.8484+5  0.0000+
+        22.2480  0.0000  0.0000 22.2480 -22.248  0.0000  0.0000 -22.248+
+            YES1.000000 1555.001.9242+51.9242+5  0.00003.8484+5  0.0000+
+        22.2480  0.0000  0.0000 22.2480 -22.248  0.0000  0.0000 -22.248+
+       0.8572580.857267                                  0.0000  0.0000+
+                                         0.0000  0.0000  0.0000  0.0000
$*  Property: PBEAM2
$*  Section: L5
PBEAM          2       1 1455.001.6847+51.6847+5  0.00003.3694+5  0.0000+
+        21.5207  0.0000  0.0000 21.5207 -21.521  0.0000  0.0000 -21.521+
+            YES1.000000 1455.001.6847+51.6847+5  0.00003.3694+5  0.0000+
+        21.5207  0.0000  0.0000 21.5207 -21.521  0.0000  0.0000 -21.521+
+       0.8572450.857237                                  0.0000  0.0000+
+                                         0.0000  0.0000  0.0000  0.0000
$*  Property: PBEAM3
$*  Section: L4
PBEAM          3       1 1425.001.6159+51.6159+5  0.00003.2318+5  0.0000+
+        21.2977  0.0000  0.0000 21.2977 -21.298  0.0000  0.0000 -21.298+
+            YES1.000000 1425.001.6159+51.6159+5  0.00003.2318+5  0.0000+
+        21.2977  0.0000  0.0000 21.2977 -21.298  0.0000  0.0000 -21.298+
+       0.8572740.857246                                  0.0000  0.0000+
+                                         0.0000  0.0000  0.0000  0.0000
$*  Property: PBEAM4
$*  Section: L3
PBEAM          4       1 1385.001.5265+51.5265+5  0.00003.0530+5  0.0000+
+        20.9966  0.0000  0.0000 20.9966 -20.997  0.0000  0.0000 -20.997+
+            YES1.000000 1385.001.5265+51.5265+5  0.00003.0530+5  0.0000+
+        20.9966  0.0000  0.0000 20.9966 -20.997  0.0000  0.0000 -20.997+
+       0.8572630.857252                                  0.0000  0.0000+
+                                         0.0000  0.0000  0.0000  0.0000
$*  Property: PBEAM5
$*  Section: L2
PBEAM          5       1 1310.001.3656+51.3656+5  0.00002.7313+5  0.0000+
+        20.4202  0.0000  0.0000 20.4202 -20.420  0.0000  0.0000 -20.420+
+            YES1.000000 1310.001.3656+51.3656+5  0.00002.7313+5  0.0000+
+        20.4202  0.0000  0.0000 20.4202 -20.420  0.0000  0.0000 -20.420+
+       0.8572530.857236                                  0.0000  0.0000+
+                                         0.0000  0.0000  0.0000  0.0000
$*
$* MATERIAL CARDS
$*
$*  Material: Lombaire::Lombaire_fem1::[1]
MAT1           1 7000.00 3000.00          0.0000
$*
$* LOAD AND CONSTRAINT CARDS
$*
$*  Constraint: UserDefined(1)
SPC            1     966  123456  0.0000
$*  Load: Force(1)
FORCE          2       1       04.0000+5  0.0000  0.0000-1.00000
ENDDATA 3f6b8841
