$*$$$$$$$$$$$$$$$$$$$$$$$$$$$$$$$$$$$$$$$$$$$$$$$$$$$$$$$$$$$$$$$$$
$*
$*                    Simcenter v1934.0.0.2202 Translator
$*                    for Simcenter Nastran version 2020.2
$*
$*             FEM FILE: C:\Users\marcd\Desktop\PI3\Simulations\Lombaire\model3_fem1.fem
$*             SIM FILE: C:\Users\marcd\Desktop\PI3\Simulations\Lombaire\model3_sim1.sim
$*        ANALYSIS TYPE: Structural
$*        SOLUTION NAME: Solution 1
$*        SOLUTION TYPE: SOL 101 Linear Statics - Global Constraints
$*
$*    SOLVER INPUT FILE: model3_sim1-solution_1.dat
$*        CREATION DATE:  8-Aug-2023
$*        CREATION TIME: 17:31:46
$*             HOSTNAME: DESKTOP-NUD6E5R
$*      NASTRAN LICENSE: Desktop Bundle
$*
$*                UNITS: mm (milli-newton)
$*                      ... LENGTH : mm
$*                      ... TIME   : sec
$*                      ... MASS   : kilogram (kg)
$*                      ... TEMPERATURE : deg Celsius
$*                      ... FORCE  : milli-newton
$*                      ... THERMAL ENERGY : mN-mm (micro-joule)
$*
$* IMPORTANT NOTE:
$*     This banner was generated by Simcenter and altering this 
$*     information may compromise the pre and post processing of results
$*
$*$$$$$$$$$$$$$$$$$$$$$$$$$$$$$$$$$$$$$$$$$$$$$$$$$$$$$$$$$$$$$$$$$
$*
$*$$$$$$$$$$$$$$$$$$$$$$$$$$$$$$$$$$$
$*
$* FILE MANAGEMENT
$*
$*$$$$$$$$$$$$$$$$$$$$$$$$$$$$$$$$$$$
$*
$*
$*$$$$$$$$$$$$$$$$$$$$$$$$$$$$$$$$$$$
$*
$* EXECUTIVE CONTROL
$*
$*$$$$$$$$$$$$$$$$$$$$$$$$$$$$$$$$$$$
$*
ID,NASTRAN,model3_sim1-solution_1
SOL 101
CEND
$*
$*$$$$$$$$$$$$$$$$$$$$$$$$$$$$$$$$$$$
$*
$* CASE CONTROL
$*
$*$$$$$$$$$$$$$$$$$$$$$$$$$$$$$$$$$$$
$*
ECHO = NONE
SPC = 1
OUTPUT
DISPLACEMENT(PLOT,REAL) = ALL
SPCFORCES(PLOT,REAL) = ALL
STRESS(PLOT,REAL,VONMISES,CENTER) = ALL
$*  Step: Subcase - Static Loads 1
SUBCASE 1
  LABEL = Subcase - Static Loads 1
  LOAD = 2
$*
$*$$$$$$$$$$$$$$$$$$$$$$$$$$$$$$$$$$$
$*
$* BULK DATA
$*
$*$$$$$$$$$$$$$$$$$$$$$$$$$$$$$$$$$$$
$*
BEGIN BULK
$*
$* PARAM CARDS
$*
PARAM      K6ROT100.0000
PARAM     OIBULK     YES
PARAM    OMACHPR     YES
PARAM       POST      -2
PARAM    POSTEXT     YES
PARAM    UNITSYS   MN-MM
$*
$* GRID CARDS
$*
GRID*                  1               05.0000000000E+000.0000000000E+00+
*       0.0000000000E+00               0
GRID*                  2               05.0000000000E+000.0000000000E+00+
*       1.0000000000E+02               0
GRID*                  3               03.8317650167E+003.2120979143E+00+
*       0.0000000000E+00               0
GRID*                  4               08.7235043394E-014.9232940662E+00+
*       0.0000000000E+00               0
GRID*                  5               0-2.496086205E+004.3323845119E+00+
*       0.0000000000E+00               0
GRID*                  6               0-4.697699509E+001.7120905041E+00+
*       0.0000000000E+00               0
GRID*                  7               0-4.697699509E+00-1.712090504E+00+
*       0.0000000000E+00               0
GRID*                  8               0-2.496086205E+00-4.332384512E+00+
*       0.0000000000E+00               0
GRID*                  9               08.7235043394E-01-4.923294066E+00+
*       0.0000000000E+00               0
GRID*                 10               03.8317650167E+00-3.212097914E+00+
*       0.0000000000E+00               0
GRID*                 11               04.6988892364E+001.7089124280E+00+
*       0.0000000000E+00               0
GRID*                 12               02.5031308350E+004.3283181399E+00+
*       0.0000000000E+00               0
GRID*                 13               0-8.639500619E-014.9247873298E+00+
*       0.0000000000E+00               0
GRID*                 14               0-3.827864185E+003.2166898553E+00+
*       0.0000000000E+00               0
GRID*                 15               0-5.000000000E+001.9984014443E-15+
*       0.0000000000E+00               0
GRID*                 16               0-3.827864185E+00-3.216689855E+00+
*       0.0000000000E+00               0
GRID*                 17               0-8.639500619E-01-4.924787330E+00+
*       0.0000000000E+00               0
GRID*                 18               02.5031308350E+00-4.328318140E+00+
*       0.0000000000E+00               0
GRID*                 19               04.6988892364E+00-1.708912428E+00+
*       0.0000000000E+00               0
GRID*                 20               03.8317650167E+003.2120979143E+00+
*       1.0000000000E+02               0
GRID*                 21               08.7235043394E-014.9232940662E+00+
*       1.0000000000E+02               0
GRID*                 22               0-2.496086205E+004.3323845119E+00+
*       1.0000000000E+02               0
GRID*                 23               0-4.697699509E+001.7120905041E+00+
*       1.0000000000E+02               0
GRID*                 24               0-4.697699509E+00-1.712090504E+00+
*       1.0000000000E+02               0
GRID*                 25               0-2.496086205E+00-4.332384512E+00+
*       1.0000000000E+02               0
GRID*                 26               08.7235043394E-01-4.923294066E+00+
*       1.0000000000E+02               0
GRID*                 27               03.8317650167E+00-3.212097914E+00+
*       1.0000000000E+02               0
GRID*                 28               04.6988892364E+001.7089124280E+00+
*       1.0000000000E+02               0
GRID*                 29               04.6988892364E+00-1.708912428E+00+
*       1.0000000000E+02               0
GRID*                 30               02.5031308350E+00-4.328318140E+00+
*       1.0000000000E+02               0
GRID*                 31               0-8.639500619E-01-4.924787330E+00+
*       1.0000000000E+02               0
GRID*                 32               0-3.827864185E+00-3.216689855E+00+
*       1.0000000000E+02               0
GRID*                 33               0-5.000000000E+001.9984014443E-15+
*       1.0000000000E+02               0
GRID*                 34               0-3.827864185E+003.2166898553E+00+
*       1.0000000000E+02               0
GRID*                 35               0-8.639500619E-014.9247873298E+00+
*       1.0000000000E+02               0
GRID*                 36               02.5031308350E+004.3283181399E+00+
*       1.0000000000E+02               0
GRID*                 37               05.0000000000E+000.0000000000E+00+
*       3.7037037037E+00               0
GRID*                 38               05.0000000000E+000.0000000000E+00+
*       7.4074074074E+00               0
GRID*                 39               05.0000000000E+000.0000000000E+00+
*       1.1111111111E+01               0
GRID*                 40               05.0000000000E+000.0000000000E+00+
*       1.4814814815E+01               0
GRID*                 41               05.0000000000E+000.0000000000E+00+
*       1.8518518519E+01               0
GRID*                 42               05.0000000000E+000.0000000000E+00+
*       2.2222222222E+01               0
GRID*                 43               05.0000000000E+000.0000000000E+00+
*       2.5925925926E+01               0
GRID*                 44               05.0000000000E+000.0000000000E+00+
*       2.9629629630E+01               0
GRID*                 45               05.0000000000E+000.0000000000E+00+
*       3.3333333333E+01               0
GRID*                 46               05.0000000000E+000.0000000000E+00+
*       3.7037037037E+01               0
GRID*                 47               05.0000000000E+000.0000000000E+00+
*       4.0740740741E+01               0
GRID*                 48               05.0000000000E+000.0000000000E+00+
*       4.4444444444E+01               0
GRID*                 49               05.0000000000E+000.0000000000E+00+
*       4.8148148148E+01               0
GRID*                 50               05.0000000000E+000.0000000000E+00+
*       5.1851851852E+01               0
GRID*                 51               05.0000000000E+000.0000000000E+00+
*       5.5555555556E+01               0
GRID*                 52               05.0000000000E+000.0000000000E+00+
*       5.9259259259E+01               0
GRID*                 53               05.0000000000E+000.0000000000E+00+
*       6.2962962963E+01               0
GRID*                 54               05.0000000000E+000.0000000000E+00+
*       6.6666666667E+01               0
GRID*                 55               05.0000000000E+000.0000000000E+00+
*       7.0370370370E+01               0
GRID*                 56               05.0000000000E+000.0000000000E+00+
*       7.4074074074E+01               0
GRID*                 57               05.0000000000E+000.0000000000E+00+
*       7.7777777778E+01               0
GRID*                 58               05.0000000000E+000.0000000000E+00+
*       8.1481481481E+01               0
GRID*                 59               05.0000000000E+000.0000000000E+00+
*       8.5185185185E+01               0
GRID*                 60               05.0000000000E+000.0000000000E+00+
*       8.8888888889E+01               0
GRID*                 61               05.0000000000E+000.0000000000E+00+
*       9.2592592593E+01               0
GRID*                 62               05.0000000000E+000.0000000000E+00+
*       9.6296296296E+01               0
GRID*                 63               05.0000000000E+000.0000000000E+00+
*       9.8148148148E+01               0
GRID*                 64               05.0000000000E+000.0000000000E+00+
*       9.4444444444E+01               0
GRID*                 65               05.0000000000E+000.0000000000E+00+
*       9.0740740741E+01               0
GRID*                 66               05.0000000000E+000.0000000000E+00+
*       8.7037037037E+01               0
GRID*                 67               05.0000000000E+000.0000000000E+00+
*       8.3333333333E+01               0
GRID*                 68               05.0000000000E+000.0000000000E+00+
*       7.9629629630E+01               0
GRID*                 69               05.0000000000E+000.0000000000E+00+
*       7.5925925926E+01               0
GRID*                 70               05.0000000000E+000.0000000000E+00+
*       7.2222222222E+01               0
GRID*                 71               05.0000000000E+000.0000000000E+00+
*       6.8518518519E+01               0
GRID*                 72               05.0000000000E+000.0000000000E+00+
*       6.4814814815E+01               0
GRID*                 73               05.0000000000E+000.0000000000E+00+
*       6.1111111111E+01               0
GRID*                 74               05.0000000000E+000.0000000000E+00+
*       5.7407407407E+01               0
GRID*                 75               05.0000000000E+000.0000000000E+00+
*       5.3703703704E+01               0
GRID*                 76               05.0000000000E+000.0000000000E+00+
*       5.0000000000E+01               0
GRID*                 77               05.0000000000E+000.0000000000E+00+
*       4.6296296296E+01               0
GRID*                 78               05.0000000000E+000.0000000000E+00+
*       4.2592592593E+01               0
GRID*                 79               05.0000000000E+000.0000000000E+00+
*       3.8888888889E+01               0
GRID*                 80               05.0000000000E+000.0000000000E+00+
*       3.5185185185E+01               0
GRID*                 81               05.0000000000E+000.0000000000E+00+
*       3.1481481481E+01               0
GRID*                 82               05.0000000000E+000.0000000000E+00+
*       2.7777777778E+01               0
GRID*                 83               05.0000000000E+000.0000000000E+00+
*       2.4074074074E+01               0
GRID*                 84               05.0000000000E+000.0000000000E+00+
*       2.0370370370E+01               0
GRID*                 85               05.0000000000E+000.0000000000E+00+
*       1.6666666667E+01               0
GRID*                 86               05.0000000000E+000.0000000000E+00+
*       1.2962962963E+01               0
GRID*                 87               05.0000000000E+000.0000000000E+00+
*       9.2592592593E+00               0
GRID*                 88               05.0000000000E+000.0000000000E+00+
*       5.5555555556E+00               0
GRID*                 89               05.0000000000E+000.0000000000E+00+
*       1.8518518519E+00               0
GRID*                 90               03.8317649861E+003.2120979456E+00+
*       9.6296296291E+01               0
GRID*                 91               08.7234697786E-014.9232944697E+00+
*       9.6296296391E+01               0
GRID*                 92               0-2.496086187E+004.3323845213E+00+
*       9.6296296296E+01               0
GRID*                 93               0-4.697705578E+001.7120743188E+00+
*       9.6296296530E+01               0
GRID*                 94               0-4.697698109E+00-1.712092065E+00+
*       9.6296296395E+01               0
GRID*                 95               0-2.496086205E+00-4.332384512E+00+
*       9.6296296297E+01               0
GRID*                 96               08.7235564090E-01-4.923293026E+00+
*       9.6296296403E+01               0
GRID*                 97               03.8317658051E+00-3.212097038E+00+
*       9.6296296298E+01               0
GRID*                 98               03.8317648531E+003.2120980930E+00+
*       9.2592592586E+01               0
GRID*                 99               08.7233699859E-014.9232961324E+00+
*       9.2592592825E+01               0
GRID*                100               0-2.496086178E+004.3323845262E+00+
*       9.2592592593E+01               0
GRID*                101               0-4.697720153E+001.7120396907E+00+
*       9.2592593317E+01               0
GRID*                102               0-4.697693591E+00-1.712102798E+00+
*       9.2592592868E+01               0
GRID*                103               0-2.496086205E+00-4.332384512E+00+
*       9.2592592594E+01               0
GRID*                104               08.7236921577E-01-4.923290764E+00+
*       9.2592592868E+01               0
GRID*                105               03.8317670585E+00-3.212095648E+00+
*       9.2592592604E+01               0
GRID*                106               03.8317646407E+003.2120983284E+00+
*       8.8888888884E+01               0
GRID*                107               08.7232193935E-014.9232986415E+00+
*       8.8888889293E+01               0
GRID*                108               0-2.496086176E+004.3323845272E+00+
*       8.8888888889E+01               0
GRID*                109               0-4.697738728E+001.7119955588E+00+
*       8.8888890215E+01               0
GRID*                110               0-4.697686543E+00-1.712119544E+00+
*       8.8888889411E+01               0
GRID*                111               0-2.496086205E+00-4.332384512E+00+
*       8.8888888890E+01               0
GRID*                112               08.7238885018E-01-4.923287493E+00+
*       8.8888889373E+01               0
GRID*                113               03.8317671696E+00-3.212095525E+00+
*       8.8888888904E+01               0
GRID*                114               03.8317643568E+003.2120986432E+00+
*       8.5185185183E+01               0
GRID*                115               08.7230314673E-014.9233017727E+00+
*       8.5185185784E+01               0
GRID*                116               0-2.496086176E+004.3323845273E+00+
*       8.5185185185E+01               0
GRID*                117               0-4.697756434E+001.7119534920E+00+
*       8.5185187074E+01               0
GRID*                118               0-4.697677375E+00-1.712141328E+00+
*       8.5185186014E+01               0
GRID*                119               0-2.496086204E+00-4.332384512E+00+
*       8.5185185186E+01               0
GRID*                120               08.7241198403E-01-4.923283638E+00+
*       8.5185185900E+01               0
GRID*                121               03.8317645326E+00-3.212098448E+00+
*       8.5185185181E+01               0
GRID*                122               03.8317640093E+003.2120990283E+00+
*       8.1481481482E+01               0
GRID*                123               08.7228203294E-014.9233052907E+00+
*       8.1481482289E+01               0
GRID*                124               0-2.496086177E+004.3323845269E+00+
*       8.1481481481E+01               0
GRID*                125               0-4.697768189E+001.7119255619E+00+
*       8.1481483733E+01               0
GRID*                126               0-4.697666513E+00-1.712167133E+00+
*       8.1481482664E+01               0
GRID*                127               0-2.496086203E+00-4.332384513E+00+
*       8.1481481483E+01               0
GRID*                128               08.7243593247E-01-4.923279648E+00+
*       8.1481482424E+01               0
GRID*                129               03.8317616578E+00-3.212101635E+00+
*       8.1481481456E+01               0
GRID*                130               03.8317636066E+003.2120994747E+00+
*       7.7777777783E+01               0
GRID*                131               08.7226009139E-014.9233089465E+00+
*       7.7777778793E+01               0
GRID*                132               0-2.496086178E+004.3323845262E+00+
*       7.7777777778E+01               0
GRID*                133               0-4.697768652E+001.7119244621E+00+
*       7.7777780026E+01               0
GRID*                134               0-4.697654409E+00-1.712195891E+00+
*       7.7777779349E+01               0
GRID*                135               0-2.496086202E+00-4.332384513E+00+
*       7.7777777779E+01               0
GRID*                136               08.7245785619E-01-4.923275995E+00+
*       7.7777778921E+01               0
GRID*                137               03.8317600239E+00-3.212103446E+00+
*       7.7777777739E+01               0
GRID*                138               03.8317631573E+003.2120999728E+00+
*       7.4074074084E+01               0
GRID*                139               08.7223891708E-014.9233124746E+00+
*       7.4074075285E+01               0
GRID*                140               0-2.496086179E+004.3323845255E+00+
*       7.4074074074E+01               0
GRID*                141               0-4.697752152E+001.7119636637E+00+
*       7.4074075775E+01               0
GRID*                142               0-4.697641539E+00-1.712226468E+00+
*       7.4074076055E+01               0
GRID*                143               0-2.496086201E+00-4.332384514E+00+
*       7.4074074075E+01               0
GRID*                144               08.7247472285E-01-4.923273185E+00+
*       7.4074075364E+01               0
GRID*                145               03.8317591109E+00-3.212104458E+00+
*       7.4074074029E+01               0
GRID*                146               03.8317626705E+003.2121005124E+00+
*       7.0370370385E+01               0
GRID*                147               08.7222023323E-014.9233155876E+00+
*       7.0370371748E+01               0
GRID*                148               0-2.496086181E+004.3323845246E+00+
*       7.0370370370E+01               0
GRID*                149               0-4.697712607E+001.7120576202E+00+
*       7.0370370787E+01               0
GRID*                150               0-4.697628416E+00-1.712257647E+00+
*       7.0370372767E+01               0
GRID*                151               0-2.496086199E+00-4.332384515E+00+
*       7.0370370371E+01               0
GRID*                152               08.7248325623E-01-4.923271763E+00+
*       7.0370371724E+01               0
GRID*                153               03.8317586558E+00-3.212104963E+00+
*       7.0370370321E+01               0
GRID*                154               03.8317621557E+003.2121010831E+00+
*       6.6666666686E+01               0
GRID*                155               08.7220592698E-014.9233179713E+00+
*       6.6666668166E+01               0
GRID*                156               0-2.496086182E+004.3323845237E+00+
*       6.6666666666E+01               0
GRID*                157               0-4.697659546E+001.7121836858E+00+
*       6.6666665370E+01               0
GRID*                158               0-4.697615597E+00-1.712288105E+00+
*       6.6666669466E+01               0
GRID*                159               0-2.496086198E+00-4.332384516E+00+
*       6.6666666668E+01               0
GRID*                160               08.7247986855E-01-4.923272328E+00+
*       6.6666667967E+01               0
GRID*                161               03.8317585094E+00-3.212105125E+00+
*       6.6666666616E+01               0
GRID*                162               03.8317616233E+003.2121016733E+00+
*       6.2962962987E+01               0
GRID*                163               08.7219809756E-014.9233192758E+00+
*       6.2962964519E+01               0
GRID*                164               0-2.496086184E+004.3323845228E+00+
*       6.2962962963E+01               0
GRID*                165               0-4.697623057E+001.7122703801E+00+
*       6.2962960486E+01               0
GRID*                166               0-4.697603695E+00-1.712316382E+00+
*       6.2962966135E+01               0
GRID*                167               0-2.496086197E+00-4.332384516E+00+
*       6.2962962964E+01               0
GRID*                168               08.7246056878E-01-4.923275543E+00+
*       6.2962964058E+01               0
GRID*                169               03.8317585795E+00-3.212105047E+00+
*       6.2962962913E+01               0
GRID*                170               03.8317610845E+003.2121022706E+00+
*       5.9259259288E+01               0
GRID*                171               08.7219912255E-014.9233191050E+00+
*       5.9259260786E+01               0
GRID*                172               0-2.496086186E+004.3323845218E+00+
*       5.9259259259E+01               0
GRID*                173               0-4.697599798E+001.7123256401E+00+
*       5.9259256026E+01               0
GRID*                174               0-4.697593401E+00-1.712340840E+00+
*       5.9259262751E+01               0
GRID*                175               0-2.496086195E+00-4.332384517E+00+
*       5.9259259260E+01               0
GRID*                176               08.7242083665E-01-4.923282163E+00+
*       5.9259259953E+01               0
GRID*                177               03.8317588053E+00-3.212104797E+00+
*       5.9259259211E+01               0
GRID*                178               03.8317605517E+003.2121028612E+00+
*       5.5555555589E+01               0
GRID*                179               08.7221175071E-014.9233170010E+00+
*       5.5555556942E+01               0
GRID*                180               0-2.496086188E+004.3323845209E+00+
*       5.5555555555E+01               0
GRID*                181               0-4.697586501E+001.7123572344E+00+
*       5.5555551885E+01               0
GRID*                182               0-4.697585504E+00-1.712359601E+00+
*       5.5555559290E+01               0
GRID*                183               0-2.496086193E+00-4.332384518E+00+
*       5.5555555556E+01               0
GRID*                184               08.7235544623E-01-4.923293059E+00+
*       5.5555555603E+01               0
GRID*                185               03.8317591438E+00-3.212104422E+00+
*       5.5555555510E+01               0
GRID*                186               03.8317600391E+003.2121034293E+00+
*       5.1851851890E+01               0
GRID*                187               08.7223923453E-014.9233124217E+00+
*       5.1851852955E+01               0
GRID*                188               0-2.496086190E+004.3323845199E+00+
*       5.1851851851E+01               0
GRID*                189               0-4.697580804E+001.7123707695E+00+
*       5.1851847988E+01               0
GRID*                190               0-4.697580933E+00-1.712370462E+00+
*       5.1851855722E+01               0
GRID*                191               0-2.496086192E+00-4.332384519E+00+
*       5.1851851852E+01               0
GRID*                192               08.7228552394E-01-4.923304709E+00+
*       5.1851851211E+01               0
GRID*                193               03.8317595632E+00-3.212103957E+00+
*       5.1851851810E+01               0
GRID*                194               03.8317595632E+003.2121039569E+00+
*       4.8148148190E+01               0
GRID*                195               08.7228552394E-014.9233047090E+00+
*       4.8148148789E+01               0
GRID*                196               0-2.496086192E+004.3323845190E+00+
*       4.8148148148E+01               0
GRID*                197               0-4.697580933E+001.7123704619E+00+
*       4.8148144277E+01               0
GRID*                198               0-4.697580804E+00-1.712370770E+00+
*       4.8148152012E+01               0
GRID*                199               0-2.496086190E+00-4.332384520E+00+
*       4.8148148149E+01               0
GRID*                200               08.7223923453E-01-4.923312422E+00+
*       4.8148147044E+01               0
GRID*                201               03.8317600391E+00-3.212103429E+00+
*       4.8148148110E+01               0
GRID*                202               03.8317591438E+003.2121044218E+00+
*       4.4444444490E+01               0
GRID*                203               08.7235544623E-014.9232930587E+00+
*       4.4444444397E+01               0
GRID*                204               0-2.496086193E+004.3323845181E+00+
*       4.4444444444E+01               0
GRID*                205               0-4.697585504E+001.7123596012E+00+
*       4.4444440710E+01               0
GRID*                206               0-4.697586501E+00-1.712357234E+00+
*       4.4444448115E+01               0
GRID*                207               0-2.496086188E+00-4.332384521E+00+
*       4.4444444445E+01               0
GRID*                208               08.7221175071E-01-4.923317001E+00+
*       4.4444443058E+01               0
GRID*                209               03.8317605517E+00-3.212102861E+00+
*       4.4444444411E+01               0
GRID*                210               03.8317588053E+003.2121047970E+00+
*       4.0740740789E+01               0
GRID*                211               08.7242083665E-014.9232821635E+00+
*       4.0740740047E+01               0
GRID*                212               0-2.496086195E+004.3323845172E+00+
*       4.0740740740E+01               0
GRID*                213               0-4.697593401E+001.7123408403E+00+
*       4.0740737248E+01               0
GRID*                214               0-4.697599798E+00-1.712325640E+00+
*       4.0740743974E+01               0
GRID*                215               0-2.496086186E+00-4.332384522E+00+
*       4.0740740741E+01               0
GRID*                216               08.7219912255E-01-4.923319105E+00+
*       4.0740739214E+01               0
GRID*                217               03.8317610845E+00-3.212102271E+00+
*       4.0740740712E+01               0
GRID*                218               03.8317585795E+003.2121050473E+00+
*       3.7037037087E+01               0
GRID*                219               08.7246056878E-014.9232755434E+00+
*       3.7037035942E+01               0
GRID*                220               0-2.496086197E+004.3323845163E+00+
*       3.7037037036E+01               0
GRID*                221               0-4.697603695E+001.7123163820E+00+
*       3.7037033865E+01               0
GRID*                222               0-4.697623057E+00-1.712270380E+00+
*       3.7037039514E+01               0
GRID*                223               0-2.496086184E+00-4.332384523E+00+
*       3.7037037037E+01               0
GRID*                224               08.7219809756E-01-4.923319276E+00+
*       3.7037035481E+01               0
GRID*                225               03.8317616233E+00-3.212101673E+00+
*       3.7037037013E+01               0
GRID*                226               03.8317585094E+003.2121051251E+00+
*       3.3333333384E+01               0
GRID*                227               08.7247986855E-014.9232723277E+00+
*       3.3333332033E+01               0
GRID*                228               0-2.496086198E+004.3323845155E+00+
*       3.3333333332E+01               0
GRID*                229               0-4.697615597E+001.7122881046E+00+
*       3.3333330534E+01               0
GRID*                230               0-4.697659546E+00-1.712183686E+00+
*       3.3333334630E+01               0
GRID*                231               0-2.496086182E+00-4.332384524E+00+
*       3.3333333334E+01               0
GRID*                232               08.7220592698E-01-4.923317971E+00+
*       3.3333331834E+01               0
GRID*                233               03.8317621557E+00-3.212101083E+00+
*       3.3333333314E+01               0
GRID*                234               03.8317586558E+003.2121049628E+00+
*       2.9629629679E+01               0
GRID*                235               08.7248325623E-014.9232717632E+00+
*       2.9629628276E+01               0
GRID*                236               0-2.496086199E+004.3323845148E+00+
*       2.9629629629E+01               0
GRID*                237               0-4.697628416E+001.7122576468E+00+
*       2.9629627233E+01               0
GRID*                238               0-4.697712607E+00-1.712057620E+00+
*       2.9629629213E+01               0
GRID*                239               0-2.496086181E+00-4.332384525E+00+
*       2.9629629630E+01               0
GRID*                240               08.7222023323E-01-4.923315588E+00+
*       2.9629628252E+01               0
GRID*                241               03.8317626705E+00-3.212100512E+00+
*       2.9629629615E+01               0
GRID*                242               03.8317591109E+003.2121044583E+00+
*       2.5925925971E+01               0
GRID*                243               08.7247472285E-014.9232731851E+00+
*       2.5925924636E+01               0
GRID*                244               0-2.496086201E+004.3323845141E+00+
*       2.5925925925E+01               0
GRID*                245               0-4.697641539E+001.7122264682E+00+
*       2.5925923945E+01               0
GRID*                246               0-4.697752152E+00-1.711963664E+00+
*       2.5925924225E+01               0
GRID*                247               0-2.496086179E+00-4.332384525E+00+
*       2.5925925926E+01               0
GRID*                248               08.7223891708E-01-4.923312475E+00+
*       2.5925924715E+01               0
GRID*                249               03.8317631573E+00-3.212099973E+00+
*       2.5925925916E+01               0
GRID*                250               03.8317600239E+003.2121034463E+00+
*       2.2222222261E+01               0
GRID*                251               08.7245785619E-014.9232759953E+00+
*       2.2222221079E+01               0
GRID*                252               0-2.496086202E+004.3323845135E+00+
*       2.2222222221E+01               0
GRID*                253               0-4.697654409E+001.7121958913E+00+
*       2.2222220651E+01               0
GRID*                254               0-4.697768652E+00-1.711924462E+00+
*       2.2222219974E+01               0
GRID*                255               0-2.496086178E+00-4.332384526E+00+
*       2.2222222222E+01               0
GRID*                256               08.7226009139E-01-4.923308947E+00+
*       2.2222221207E+01               0
GRID*                257               03.8317636066E+00-3.212099475E+00+
*       2.2222222217E+01               0
GRID*                258               03.8317616578E+003.2121016350E+00+
*       1.8518518544E+01               0
GRID*                259               08.7243593247E-014.9232796482E+00+
*       1.8518517576E+01               0
GRID*                260               0-2.496086203E+004.3323845129E+00+
*       1.8518518517E+01               0
GRID*                261               0-4.697666513E+001.7121671330E+00+
*       1.8518517336E+01               0
GRID*                262               0-4.697768189E+00-1.711925562E+00+
*       1.8518516267E+01               0
GRID*                263               0-2.496086177E+00-4.332384527E+00+
*       1.8518518519E+01               0
GRID*                264               08.7228203294E-01-4.923305291E+00+
*       1.8518517711E+01               0
GRID*                265               03.8317640093E+00-3.212099028E+00+
*       1.8518518518E+01               0
GRID*                266               03.8317645326E+003.2120984483E+00+
*       1.4814814819E+01               0
GRID*                267               08.7241198403E-014.9232836385E+00+
*       1.4814814100E+01               0
GRID*                268               0-2.496086204E+004.3323845125E+00+
*       1.4814814814E+01               0
GRID*                269               0-4.697677375E+001.7121413277E+00+
*       1.4814813986E+01               0
GRID*                270               0-4.697756434E+00-1.711953492E+00+
*       1.4814812926E+01               0
GRID*                271               0-2.496086176E+00-4.332384527E+00+
*       1.4814814815E+01               0
GRID*                272               08.7230314674E-01-4.923301773E+00+
*       1.4814814216E+01               0
GRID*                273               03.8317643568E+00-3.212098643E+00+
*       1.4814814817E+01               0
GRID*                274               03.8317671696E+003.2120955251E+00+
*       1.1111111096E+01               0
GRID*                275               08.7238885018E-014.9232874930E+00+
*       1.1111110627E+01               0
GRID*                276               0-2.496086205E+004.3323845121E+00+
*       1.1111111110E+01               0
GRID*                277               0-4.697686543E+001.7121195441E+00+
*       1.1111110589E+01               0
GRID*                278               0-4.697738728E+00-1.711995559E+00+
*       1.1111109785E+01               0
GRID*                279               0-2.496086176E+00-4.332384527E+00+
*       1.1111111111E+01               0
GRID*                280               08.7232193935E-01-4.923298642E+00+
*       1.1111110707E+01               0
GRID*                281               03.8317646407E+00-3.212098328E+00+
*       1.1111111116E+01               0
GRID*                282               03.8317670585E+003.2120956483E+00+
*       7.4074073959E+00               0
GRID*                283               08.7236921576E-014.9232907644E+00+
*       7.4074071323E+00               0
GRID*                284               0-2.496086205E+004.3323845119E+00+
*       7.4074074062E+00               0
GRID*                285               0-4.697693591E+001.7121027985E+00+
*       7.4074071316E+00               0
GRID*                286               0-4.697720153E+00-1.712039691E+00+
*       7.4074066831E+00               0
GRID*                287               0-2.496086178E+00-4.332384526E+00+
*       7.4074074075E+00               0
GRID*                288               08.7233699859E-01-4.923296132E+00+
*       7.4074071752E+00               0
GRID*                289               03.8317648531E+00-3.212098093E+00+
*       7.4074074138E+00               0
GRID*                290               03.8317658051E+003.2120970377E+00+
*       3.7037037024E+00               0
GRID*                291               08.7235564090E-014.9232930263E+00+
*       3.7037035966E+00               0
GRID*                292               0-2.496086205E+004.3323845117E+00+
*       3.7037037026E+00               0
GRID*                293               0-4.697698109E+001.7120920650E+00+
*       3.7037036048E+00               0
GRID*                294               0-4.697705578E+00-1.712074319E+00+
*       3.7037034701E+00               0
GRID*                295               0-2.496086187E+00-4.332384521E+00+
*       3.7037037038E+00               0
GRID*                296               08.7234697786E-01-4.923294470E+00+
*       3.7037036090E+00               0
GRID*                297               03.8317649861E+00-3.212097946E+00+
*       3.7037037089E+00               0
GRID*                298               03.8317649300E+003.2120980078E+00+
*       9.4444444438E+01               0
GRID*                299               02.5031308741E+004.3283181147E+00+
*       9.4444444444E+01               0
GRID*                300               02.5031308715E+004.3283181164E+00+
*       9.6296296296E+01               0
GRID*                301               02.5031308748E+004.3283181142E+00+
*       9.2592592592E+01               0
GRID*                302               08.7234270517E-014.9232951816E+00+
*       9.4444444603E+01               0
GRID*                303               0-8.639762377E-014.9247845144E+00+
*       9.2592592862E+01               0
GRID*                304               0-8.639684713E-014.9247853123E+00+
*       9.4444444635E+01               0
GRID*                305               0-2.496086181E+004.3323845247E+00+
*       9.4444444444E+01               0
GRID*                306               0-8.639601749E-014.9247861647E+00+
*       9.6296296401E+01               0
GRID*                307               0-3.827874344E+003.2166760132E+00+
*       9.2592592858E+01               0
GRID*                308               0-3.827869517E+003.2166821564E+00+
*       9.4444444609E+01               0
GRID*                309               0-4.697712068E+001.7120588989E+00+
*       9.4444444900E+01               0
GRID*                310               0-3.827865939E+003.2166867106E+00+
*       9.6296296381E+01               0
GRID*                311               0-5.000000000E+00-5.080060168E-12+
*       9.2592592593E+01               0
GRID*                312               0-5.000000000E+00-5.225674820E-12+
*       9.4444444444E+01               0
GRID*                313               0-4.697696191E+00-1.712096621E+00+
*       9.4444444622E+01               0
GRID*                314               0-5.000000000E+00-5.032920695E-12+
*       9.6296296296E+01               0
GRID*                315               0-3.827836736E+00-3.216723879E+00+
*       9.2592593141E+01               0
GRID*                316               0-3.827847344E+00-3.216710378E+00+
*       9.4444444782E+01               0
GRID*                317               0-2.496086205E+00-4.332384512E+00+
*       9.4444444446E+01               0
GRID*                318               0-3.827855635E+00-3.216699826E+00+
*       9.6296296465E+01               0
GRID*                319               0-8.639485008E-01-4.924787364E+00+
*       9.2592592636E+01               0
GRID*                320               0-8.639495283E-01-4.924787258E+00+
*       9.4444444474E+01               0
GRID*                321               08.7236151509E-01-4.923292048E+00+
*       9.4444444629E+01               0
GRID*                322               0-8.639502782E-01-4.924787181E+00+
*       9.6296296315E+01               0
GRID*                323               02.5031308341E+00-4.328318140E+00+
*       9.2592592593E+01               0
GRID*                324               02.5031308339E+00-4.328318141E+00+
*       9.4444444445E+01               0
GRID*                325               03.8317664723E+00-3.212096298E+00+
*       9.4444444451E+01               0
GRID*                326               02.5031308337E+00-4.328318141E+00+
*       9.6296296297E+01               0
GRID*                327               03.8317647563E+003.2120982003E+00+
*       9.0740740735E+01               0
GRID*                328               02.5031308749E+004.3283181142E+00+
*       9.0740740741E+01               0
GRID*                329               02.5031308745E+004.3283181145E+00+
*       8.8888888889E+01               0
GRID*                330               08.7233002119E-014.9232972950E+00+
*       9.0740741055E+01               0
GRID*                331               0-8.639812185E-014.9247840027E+00+
*       9.0740741059E+01               0
GRID*                332               0-8.639811307E-014.9247840117E+00+
*       8.8888889204E+01               0
GRID*                333               0-2.496086176E+004.3323845269E+00+
*       9.0740740741E+01               0
GRID*                334               0-3.827887308E+003.2166595130E+00+
*       8.8888889415E+01               0
GRID*                335               0-3.827880311E+003.2166684186E+00+
*       9.0740741127E+01               0
GRID*                336               0-4.697729240E+001.7120181002E+00+
*       9.0740741762E+01               0
GRID*                337               0-5.000000000E+00-5.129034357E-12+
*       8.8888888889E+01               0
GRID*                338               0-5.000000000E+00-5.272905121E-12+
*       9.0740740741E+01               0
GRID*                339               0-4.697690358E+00-1.712110480E+00+
*       9.0740741132E+01               0
GRID*                340               0-3.827810951E+00-3.216756698E+00+
*       8.8888889942E+01               0
GRID*                341               0-3.827824404E+00-3.216739575E+00+
*       9.0740741532E+01               0
GRID*                342               0-2.496086205E+00-4.332384512E+00+
*       9.0740740742E+01               0
GRID*                343               0-8.639456655E-01-4.924787655E+00+
*       8.8888888965E+01               0
GRID*                344               0-8.639472087E-01-4.924787497E+00+
*       9.0740740799E+01               0
GRID*                345               08.7237843291E-01-4.923289229E+00+
*       9.0740741117E+01               0
GRID*                346               02.5031308348E+00-4.328318140E+00+
*       8.8888888889E+01               0
GRID*                347               02.5031308344E+00-4.328318140E+00+
*       9.0740740741E+01               0
GRID*                348               03.8317673596E+00-3.212095314E+00+
*       9.0740740756E+01               0
GRID*                349               03.8317645072E+003.2120984764E+00+
*       8.7037037033E+01               0
GRID*                350               02.5031308739E+004.3283181148E+00+
*       8.7037037037E+01               0
GRID*                351               02.5031308732E+004.3283181153E+00+
*       8.5185185185E+01               0
GRID*                352               08.7231292315E-014.9233001438E+00+
*       8.7037037536E+01               0
GRID*                353               0-8.639736615E-014.9247847791E+00+
*       8.7037037273E+01               0
GRID*                354               0-8.639564647E-014.9247865459E+00+
*       8.5185185243E+01               0
GRID*                355               0-2.496086176E+004.3323845273E+00+
*       8.7037037037E+01               0
GRID*                356               0-3.827903939E+003.2166383453E+00+
*       8.5185186038E+01               0
GRID*                357               0-3.827895222E+003.2166494397E+00+
*       8.7037037719E+01               0
GRID*                358               0-4.697748001E+001.7119735258E+00+
*       8.7037038659E+01               0
GRID*                359               0-5.000000000E+00-5.179752435E-12+
*       8.5185185185E+01               0
GRID*                360               0-5.000000000E+00-5.325367086E-12+
*       8.7037037037E+01               0
GRID*                361               0-4.697682198E+00-1.712129869E+00+
*       8.7037037706E+01               0
GRID*                362               0-3.827783160E+00-3.216792071E+00+
*       8.5185186774E+01               0
GRID*                363               0-3.827796993E+00-3.216774464E+00+
*       8.7037038360E+01               0
GRID*                364               0-2.496086204E+00-4.332384512E+00+
*       8.7037037038E+01               0
GRID*                365               0-8.639418793E-01-4.924788044E+00+
*       8.5185185302E+01               0
GRID*                366               0-8.639438845E-01-4.924787838E+00+
*       8.7037037132E+01               0
GRID*                367               08.7240014424E-01-4.923285611E+00+
*       8.7037037635E+01               0
GRID*                368               02.5031308356E+00-4.328318139E+00+
*       8.5185185186E+01               0
GRID*                369               02.5031308352E+00-4.328318140E+00+
*       8.7037037037E+01               0
GRID*                370               03.8317662797E+00-3.212096512E+00+
*       8.7037037046E+01               0
GRID*                371               03.8317641905E+003.2120988275E+00+
*       8.3333333332E+01               0
GRID*                372               02.5031308723E+004.3283181159E+00+
*       8.3333333333E+01               0
GRID*                373               02.5031308714E+004.3283181165E+00+
*       8.1481481481E+01               0
GRID*                374               08.7229278876E-014.9233034986E+00+
*       8.3333334036E+01               0
GRID*                375               0-8.639331473E-014.9247889414E+00+
*       8.3333333151E+01               0
GRID*                376               0-8.639151624E-014.9247907892E+00+
*       8.1481481113E+01               0
GRID*                377               0-2.496086176E+004.3323845271E+00+
*       8.3333333333E+01               0
GRID*                378               0-3.827913340E+003.2166263800E+00+
*       8.3333334368E+01               0
GRID*                379               0-3.827923304E+003.2166136979E+00+
*       8.1481482709E+01               0
GRID*                380               0-4.697763382E+001.7119369827E+00+
*       8.3333335439E+01               0
GRID*                381               0-5.000000000E+00-5.225238848E-12+
*       8.1481481481E+01               0
GRID*                382               0-5.000000000E+00-5.372742712E-12+
*       8.3333333333E+01               0
GRID*                383               0-4.697672128E+00-1.712153793E+00+
*       8.3333334334E+01               0
GRID*                384               0-3.827758467E+00-3.216823500E+00+
*       8.1481483541E+01               0
GRID*                385               0-3.827770096E+00-3.216808697E+00+
*       8.3333335171E+01               0
GRID*                386               0-2.496086203E+00-4.332384513E+00+
*       8.3333333335E+01               0
GRID*                387               0-8.639372521E-01-4.924788520E+00+
*       8.1481481646E+01               0
GRID*                388               0-8.639396638E-01-4.924788272E+00+
*       8.3333333473E+01               0
GRID*                389               08.7242402986E-01-4.923281631E+00+
*       8.3333334163E+01               0
GRID*                390               02.5031308367E+00-4.328318139E+00+
*       8.1481481482E+01               0
GRID*                391               02.5031308361E+00-4.328318139E+00+
*       8.3333333334E+01               0
GRID*                392               03.8317628898E+00-3.212100269E+00+
*       8.3333333317E+01               0
GRID*                393               03.8317638144E+003.2120992444E+00+
*       7.9629629633E+01               0
GRID*                394               02.5031308704E+004.3283181171E+00+
*       7.9629629629E+01               0
GRID*                395               02.5031308694E+004.3283181177E+00+
*       7.7777777778E+01               0
GRID*                396               08.7227106860E-014.9233071175E+00+
*       7.9629630542E+01               0
GRID*                397               0-8.639014766E-014.9247921952E+00+
*       7.9629629121E+01               0
GRID*                398               0-8.638910417E-014.9247932673E+00+
*       7.7777777161E+01               0
GRID*                399               0-2.496086177E+004.3323845266E+00+
*       7.9629629629E+01               0
GRID*                400               0-3.827933706E+003.2166004579E+00+
*       7.9629631058E+01               0
GRID*                401               0-3.827944418E+003.2165868237E+00+
*       7.7777779411E+01               0
GRID*                402               0-4.697770178E+001.7119208366E+00+
*       7.9629631936E+01               0
GRID*                403               0-5.000000000E+00-5.276102249E-12+
*       7.7777777778E+01               0
GRID*                404               0-5.000000000E+00-5.418083801E-12+
*       7.9629629630E+01               0
GRID*                405               0-4.697660587E+00-1.712181212E+00+
*       7.9629631003E+01               0
GRID*                406               0-3.827742258E+00-3.216844129E+00+
*       7.7777780141E+01               0
GRID*                407               0-3.827748953E+00-3.216835609E+00+
*       7.9629631868E+01               0
GRID*                408               0-2.496086202E+00-4.332384513E+00+
*       7.9629629631E+01               0
GRID*                409               0-8.639318979E-01-4.924789070E+00+
*       7.7777777997E+01               0
GRID*                410               0-8.639346586E-01-4.924788786E+00+
*       7.9629629821E+01               0
GRID*                411               08.7244733189E-01-4.923277749E+00+
*       7.9629630677E+01               0
GRID*                412               02.5031308380E+00-4.328318138E+00+
*       7.7777777778E+01               0
GRID*                413               02.5031308373E+00-4.328318138E+00+
*       7.9629629630E+01               0
GRID*                414               03.8317607270E+00-3.212102667E+00+
*       7.9629629597E+01               0
GRID*                415               03.8317633873E+003.2120997179E+00+
*       7.5925925933E+01               0
GRID*                416               02.5031308683E+004.3283181184E+00+
*       7.5925925926E+01               0
GRID*                417               02.5031308672E+004.3283181191E+00+
*       7.4074074074E+01               0
GRID*                418               08.7224930400E-014.9233107439E+00+
*       7.5925927042E+01               0
GRID*                419               0-8.638831286E-014.9247940803E+00+
*       7.5925925227E+01               0
GRID*                420               0-8.638772133E-014.9247946880E+00+
*       7.4074073314E+01               0
GRID*                421               0-2.496086178E+004.3323845259E+00+
*       7.5925925926E+01               0
GRID*                422               0-3.827955307E+003.2165729648E+00+
*       7.5925927768E+01               0
GRID*                423               0-3.827966234E+003.2165590571E+00+
*       7.4074076125E+01               0
GRID*                424               0-4.697762892E+001.7119381477E+00+
*       7.5925927980E+01               0
GRID*                425               0-5.000000000E+00-5.325076438E-12+
*       7.4074074074E+01               0
GRID*                426               0-5.000000000E+00-5.470691090E-12+
*       7.5925925926E+01               0
GRID*                427               0-4.697648039E+00-1.712211026E+00+
*       7.5925927700E+01               0
GRID*                428               0-3.827740270E+00-3.216846660E+00+
*       7.4074076465E+01               0
GRID*                429               0-3.827739112E+00-3.216848133E+00+
*       7.5925928344E+01               0
GRID*                430               0-2.496086201E+00-4.332384514E+00+
*       7.5925925927E+01               0
GRID*                431               0-8.639259353E-01-4.924789682E+00+
*       7.4074074353E+01               0
GRID*                432               0-8.639289850E-01-4.924789369E+00+
*       7.5925926174E+01               0
GRID*                433               08.7246712000E-01-4.923274452E+00+
*       7.5925927151E+01               0
GRID*                434               02.5031308394E+00-4.328318137E+00+
*       7.4074074074E+01               0
GRID*                435               02.5031308387E+00-4.328318137E+00+
*       7.5925925926E+01               0
GRID*                436               03.8317594974E+00-3.212104030E+00+
*       7.5925925883E+01               0
GRID*                437               03.8317629180E+003.2121002380E+00+
*       7.2222222234E+01               0
GRID*                438               02.5031308661E+004.3283181199E+00+
*       7.2222222222E+01               0
GRID*                439               02.5031308650E+004.3283181206E+00+
*       7.0370370370E+01               0
GRID*                440               08.7222915023E-014.9233141019E+00+
*       7.2222223521E+01               0
GRID*                441               0-8.638729085E-014.9247951303E+00+
*       7.2222221418E+01               0
GRID*                442               0-8.638699210E-014.9247954372E+00+
*       7.0370369535E+01               0
GRID*                443               0-2.496086180E+004.3323845251E+00+
*       7.2222222222E+01               0
GRID*                444               0-3.827977056E+003.2165452835E+00+
*       7.2222224480E+01               0
GRID*                445               0-3.827987622E+003.2165318352E+00+
*       7.0370372829E+01               0
GRID*                446               0-4.697735659E+001.7120028490E+00+
*       7.2222223386E+01               0
GRID*                447               0-5.000000000E+00-5.374050628E-12+
*       7.0370370370E+01               0
GRID*                448               0-5.000000000E+00-5.519665279E-12+
*       7.2222222222E+01               0
GRID*                449               0-4.697634976E+00-1.712242062E+00+
*       7.2222224411E+01               0
GRID*                450               0-3.827758680E+00-3.216823228E+00+
*       7.0370372395E+01               0
GRID*                451               0-3.827746519E+00-3.216838706E+00+
*       7.2222224487E+01               0
GRID*                452               0-2.496086200E+00-4.332384514E+00+
*       7.2222222223E+01               0
GRID*                453               0-8.639194891E-01-4.924790345E+00+
*       7.0370370715E+01               0
GRID*                454               0-8.639227646E-01-4.924790008E+00+
*       7.2222222533E+01               0
GRID*                455               08.7248024720E-01-4.923272265E+00+
*       7.2222223556E+01               0
GRID*                456               02.5031308410E+00-4.328318136E+00+
*       7.0370370371E+01               0
GRID*                457               02.5031308402E+00-4.328318136E+00+
*       7.2222222223E+01               0
GRID*                458               03.8317588372E+00-3.212104762E+00+
*       7.2222222175E+01               0
GRID*                459               03.8317624160E+003.2121007946E+00+
*       6.8518518535E+01               0
GRID*                460               02.5031308638E+004.3283181213E+00+
*       6.8518518518E+01               0
GRID*                461               02.5031308626E+004.3283181221E+00+
*       6.6666666666E+01               0
GRID*                462               08.7221240735E-014.9233168916E+00+
*       6.8518519963E+01               0
GRID*                463               0-8.638680239E-014.9247956321E+00+
*       6.8518517663E+01               0
GRID*                464               0-8.638670382E-014.9247957333E+00+
*       6.6666665800E+01               0
GRID*                465               0-2.496086182E+004.3323845242E+00+
*       6.8518518518E+01               0
GRID*                466               0-3.827997775E+003.2165189127E+00+
*       6.8518521170E+01               0
GRID*                467               0-3.828007349E+003.2165067268E+00+
*       6.6666669500E+01               0
GRID*                468               0-4.697684155E+001.7121252188E+00+
*       6.8518518017E+01               0
GRID*                469               0-5.000000000E+00-5.228435976E-12+
*       6.8518518519E+01               0
GRID*                470               0-5.000000000E+00-5.421426253E-12+
*       6.6666666667E+01               0
GRID*                471               0-4.697621932E+00-1.712273053E+00+
*       6.8518521119E+01               0
GRID*                472               0-3.827777615E+00-3.216799127E+00+
*       6.8518520173E+01               0
GRID*                473               0-3.827804231E+00-3.216765251E+00+
*       6.6666667804E+01               0
GRID*                474               0-2.496086199E+00-4.332384515E+00+
*       6.8518518519E+01               0
GRID*                475               0-8.639126920E-01-4.924791043E+00+
*       6.6666667079E+01               0
GRID*                476               0-8.639161258E-01-4.924790690E+00+
*       6.8518518896E+01               0
GRID*                477               08.7248329124E-01-4.923271757E+00+
*       6.8518519862E+01               0
GRID*                478               02.5031308428E+00-4.328318135E+00+
*       6.6666666667E+01               0
GRID*                479               02.5031308419E+00-4.328318135E+00+
*       6.8518518519E+01               0
GRID*                480               03.8317585507E+00-3.212105079E+00+
*       6.8518518469E+01               0
GRID*                481               03.8317618910E+003.2121013765E+00+
*       6.4814814837E+01               0
GRID*                482               02.5031308615E+004.3283181228E+00+
*       6.4814814815E+01               0
GRID*                483               02.5031308603E+004.3283181236E+00+
*       6.2962962963E+01               0
GRID*                484               08.7220106152E-014.9233187820E+00+
*       6.4814816352E+01               0
GRID*                485               0-8.638668204E-014.9247957557E+00+
*       6.4814813945E+01               0
GRID*                486               0-8.638672532E-014.9247957113E+00+
*       6.2962962097E+01               0
GRID*                487               0-2.496086183E+004.3323845233E+00+
*       6.4814814814E+01               0
GRID*                488               0-3.828016169E+003.2164955005E+00+
*       6.4814817815E+01               0
GRID*                489               0-3.828024050E+003.2164854706E+00+
*       6.2962966112E+01               0
GRID*                490               0-4.697639395E+001.7122315634E+00+
*       6.4814812867E+01               0
GRID*                491               0-5.000000000E+00-5.275666277E-12+
*       6.4814814815E+01               0
GRID*                492               0-5.000000000E+00-5.470400442E-12+
*       6.2962962963E+01               0
GRID*                493               0-4.697609490E+00-1.712302613E+00+
*       6.4814817806E+01               0
GRID*                494               0-3.827839486E+00-3.216720380E+00+
*       6.4814815269E+01               0
GRID*                495               0-3.827882533E+00-3.216665591E+00+
*       6.2962962584E+01               0
GRID*                496               0-2.496086197E+00-4.332384516E+00+
*       6.4814814816E+01               0
GRID*                497               0-8.639092059E-01-4.924791401E+00+
*       6.4814815262E+01               0
GRID*                498               0-8.639056866E-01-4.924791763E+00+
*       6.2962963446E+01               0
GRID*                499               08.7247247602E-01-4.923273559E+00+
*       6.4814816034E+01               0
GRID*                500               02.5031308447E+00-4.328318134E+00+
*       6.2962962963E+01               0
GRID*                501               02.5031308437E+00-4.328318134E+00+
*       6.4814814815E+01               0
GRID*                502               03.8317585217E+00-3.212105111E+00+
*       6.4814814765E+01               0
GRID*                503               03.8317613539E+003.2121019719E+00+
*       6.1111111138E+01               0
GRID*                504               02.5031308591E+004.3283181243E+00+
*       6.1111111111E+01               0
GRID*                505               02.5031308579E+004.3283181251E+00+
*       5.9259259259E+01               0
GRID*                506               08.7219734147E-014.9233194018E+00+
*       6.1111112665E+01               0
GRID*                507               0-8.638682397E-014.9247956099E+00+
*       6.1111110255E+01               0
GRID*                508               0-8.638696985E-014.9247954600E+00+
*       5.9259258417E+01               0
GRID*                509               0-2.496086185E+004.3323845223E+00+
*       6.1111111111E+01               0
GRID*                510               0-3.828030791E+003.2164768895E+00+
*       6.1111114387E+01               0
GRID*                511               0-3.828036182E+003.2164700284E+00+
*       5.9259262636E+01               0
GRID*                512               0-4.697610005E+001.7123013911E+00+
*       6.1111108210E+01               0
GRID*                513               0-5.000000000E+00-5.323041902E-12+
*       6.1111111111E+01               0
GRID*                514               0-5.000000000E+00-5.515886855E-12+
*       5.9259259259E+01               0
GRID*                515               0-4.697598300E+00-1.712329199E+00+
*       6.1111114451E+01               0
GRID*                516               0-3.827920652E+00-3.216617072E+00+
*       6.1111109995E+01               0
GRID*                517               0-3.827952053E+00-3.216577106E+00+
*       5.9259257535E+01               0
GRID*                518               0-2.496086196E+00-4.332384517E+00+
*       6.1111111112E+01               0
GRID*                519               0-8.639021539E-01-4.924792126E+00+
*       6.1111111629E+01               0
GRID*                520               0-8.638986288E-01-4.924792488E+00+
*       5.9259259813E+01               0
GRID*                521               08.7244356434E-01-4.923278377E+00+
*       6.1111112033E+01               0
GRID*                522               02.5031308457E+00-4.328318133E+00+
*       6.1111111111E+01               0
GRID*                523               02.5031308467E+00-4.328318132E+00+
*       5.9259259260E+01               0
GRID*                524               03.8317586760E+00-3.212104940E+00+
*       6.1111111062E+01               0
GRID*                525               03.8317608165E+003.2121025676E+00+
*       5.7407407439E+01               0
GRID*                526               02.5031308568E+004.3283181259E+00+
*       5.7407407407E+01               0
GRID*                527               02.5031308556E+004.3283181266E+00+
*       5.5555555555E+01               0
GRID*                528               08.7220379666E-014.9233183263E+00+
*       5.7407408880E+01               0
GRID*                529               0-8.638715604E-014.9247952687E+00+
*       5.7407406584E+01               0
GRID*                530               0-8.638737659E-014.9247950422E+00+
*       5.5555554754E+01               0
GRID*                531               0-2.496086187E+004.3323845214E+00+
*       5.7407407407E+01               0
GRID*                532               0-3.828039992E+003.2164651794E+00+
*       5.7407410854E+01               0
GRID*                533               0-3.828041971E+003.2164626598E+00+
*       5.5555559038E+01               0
GRID*                534               0-4.697592069E+001.7123440054E+00+
*       5.7407403921E+01               0
GRID*                535               0-5.000000000E+00-5.370126880E-12+
*       5.7407407407E+01               0
GRID*                536               0-5.000000000E+00-5.566604932E-12+
*       5.5555555556E+01               0
GRID*                537               0-4.697589099E+00-1.712351062E+00+
*       5.7407411032E+01               0
GRID*                538               0-3.827977586E+00-3.216544609E+00+
*       5.7407405188E+01               0
GRID*                539               0-3.827997973E+00-3.216518660E+00+
*       5.5555552940E+01               0
GRID*                540               0-2.496086194E+00-4.332384518E+00+
*       5.7407407408E+01               0
GRID*                541               0-8.638951337E-01-4.924792847E+00+
*       5.7407407996E+01               0
GRID*                542               0-8.638916924E-01-4.924793200E+00+
*       5.5555556178E+01               0
GRID*                543               08.7239170913E-01-4.923287017E+00+
*       5.7407407812E+01               0
GRID*                544               02.5031308477E+00-4.328318132E+00+
*       5.7407407408E+01               0
GRID*                545               02.5031308488E+00-4.328318131E+00+
*       5.5555555556E+01               0
GRID*                546               03.8317589627E+00-3.212104623E+00+
*       5.7407407361E+01               0
GRID*                547               03.8317602919E+003.2121031491E+00+
*       5.3703703740E+01               0
GRID*                548               02.5031308544E+004.3283181274E+00+
*       5.3703703703E+01               0
GRID*                549               02.5031308533E+004.3283181281E+00+
*       5.1851851852E+01               0
GRID*                550               08.7222340796E-014.9233150587E+00+
*       5.3703704969E+01               0
GRID*                551               0-8.638762631E-014.9247947856E+00+
*       5.3703702927E+01               0
GRID*                552               0-8.638790066E-014.9247945037E+00+
*       5.1851851102E+01               0
GRID*                553               0-2.496086189E+004.3323845204E+00+
*       5.3703703703E+01               0
GRID*                554               0-3.828041849E+003.2164628159E+00+
*       5.3703707180E+01               0
GRID*                555               0-3.828039325E+003.2164660284E+00+
*       5.1851855276E+01               0
GRID*                556               0-4.697582824E+001.7123659698E+00+
*       5.3703699910E+01               0
GRID*                557               0-5.000000000E+00-5.419246393E-12+
*       5.3703703704E+01               0
GRID*                558               0-5.000000000E+00-5.613835234E-12+
*       5.1851851852E+01               0
GRID*                559               0-4.697582738E+00-1.712366173E+00+
*       5.3703707522E+01               0
GRID*                560               0-3.828013835E+00-3.216498471E+00+
*       5.3703700780E+01               0
GRID*                561               0-3.828025710E+00-3.216483357E+00+
*       5.1851848696E+01               0
GRID*                562               0-2.496086192E+00-4.332384519E+00+
*       5.3703703704E+01               0
GRID*                563               0-8.638883302E-01-4.924793546E+00+
*       5.3703704360E+01               0
GRID*                564               0-8.638850747E-01-4.924793880E+00+
*       5.1851852541E+01               0
GRID*                565               08.7231721446E-01-4.923299429E+00+
*       5.3703703376E+01               0
GRID*                566               02.5031308499E+00-4.328318130E+00+
*       5.3703703704E+01               0
GRID*                567               02.5031308510E+00-4.328318130E+00+
*       5.1851851852E+01               0
GRID*                568               03.8317593451E+00-3.212104199E+00+
*       5.3703703660E+01               0
GRID*                569               03.8317597954E+003.2121036995E+00+
*       5.0000000040E+01               0
GRID*                570               02.5031308521E+004.3283181288E+00+
*       5.0000000000E+01               0
GRID*                571               02.5031308510E+004.3283181295E+00+
*       4.8148148148E+01               0
GRID*                572               08.7225974736E-014.9233090039E+00+
*       5.0000000897E+01               0
GRID*                573               0-8.638819559E-014.9247942007E+00+
*       4.9999999280E+01               0
GRID*                574               0-8.638850747E-014.9247938803E+00+
*       4.8148147459E+01               0
GRID*                575               0-2.496086191E+004.3323845194E+00+
*       4.9999999999E+01               0
GRID*                576               0-3.828034068E+003.2164727187E+00+
*       5.0000003320E+01               0
GRID*                577               0-3.828025710E+003.2164833568E+00+
*       4.8148151304E+01               0
GRID*                578               0-4.697580234E+001.7123721227E+00+
*       4.9999996112E+01               0
GRID*                579               0-5.000000000E+00-5.470109794E-12+
*       5.0000000000E+01               0
GRID*                580               0-5.000000000E+00-5.664771297E-12+
*       4.8148148148E+01               0
GRID*                581               0-4.697580234E+00-1.712372123E+00+
*       5.0000003888E+01               0
GRID*                582               0-3.828034068E+00-3.216472719E+00+
*       4.9999996680E+01               0
GRID*                583               0-3.828039325E+00-3.216466028E+00+
*       4.8148144724E+01               0
GRID*                584               0-2.496086191E+00-4.332384519E+00+
*       5.0000000001E+01               0
GRID*                585               0-8.638819559E-01-4.924794201E+00+
*       5.0000000720E+01               0
GRID*                586               0-8.638790066E-01-4.924794504E+00+
*       4.8148148898E+01               0
GRID*                587               08.7225974736E-01-4.923309004E+00+
*       4.9999999103E+01               0
GRID*                588               02.5031308521E+00-4.328318129E+00+
*       5.0000000000E+01               0
GRID*                589               02.5031308533E+00-4.328318128E+00+
*       4.8148148148E+01               0
GRID*                590               03.8317597954E+00-3.212103699E+00+
*       4.9999999960E+01               0
GRID*                591               03.8317593451E+003.2121041987E+00+
*       4.6296296340E+01               0
GRID*                592               02.5031308499E+004.3283181303E+00+
*       4.6296296296E+01               0
GRID*                593               02.5031308488E+004.3283181310E+00+
*       4.4444444444E+01               0
GRID*                594               08.7231721446E-014.9232994288E+00+
*       4.6296296624E+01               0
GRID*                595               0-8.638883302E-014.9247935459E+00+
*       4.6296295640E+01               0
GRID*                596               0-8.638916924E-014.9247932004E+00+
*       4.4444443822E+01               0
GRID*                597               0-2.496086192E+004.3323845185E+00+
*       4.6296296296E+01               0
GRID*                598               0-3.828013835E+003.2164984711E+00+
*       4.6296299220E+01               0
GRID*                599               0-3.827997973E+003.2165186602E+00+
*       4.4444447060E+01               0
GRID*                600               0-4.697582738E+001.7123661725E+00+
*       4.6296292478E+01               0
GRID*                601               0-5.000000000E+00-5.519011321E-12+
*       4.6296296296E+01               0
GRID*                602               0-5.000000000E+00-5.708295836E-12+
*       4.4444444444E+01               0
GRID*                603               0-4.697582824E+00-1.712365970E+00+
*       4.6296300090E+01               0
GRID*                604               0-3.828041849E+00-3.216462816E+00+
*       4.6296292820E+01               0
GRID*                605               0-3.828041971E+00-3.216462660E+00+
*       4.4444440962E+01               0
GRID*                606               0-2.496086189E+00-4.332384520E+00+
*       4.6296296297E+01               0
GRID*                607               0-8.638762631E-01-4.924794786E+00+
*       4.6296297073E+01               0
GRID*                608               0-8.638737659E-01-4.924795042E+00+
*       4.4444445246E+01               0
GRID*                609               08.7222340796E-01-4.923315059E+00+
*       4.6296295031E+01               0
GRID*                610               02.5031308544E+00-4.328318127E+00+
*       4.6296296297E+01               0
GRID*                611               02.5031308556E+00-4.328318127E+00+
*       4.4444444445E+01               0
GRID*                612               03.8317602919E+00-3.212103149E+00+
*       4.6296296260E+01               0
GRID*                613               03.8317589627E+003.2121046226E+00+
*       4.2592592639E+01               0
GRID*                614               02.5031308477E+004.3283181316E+00+
*       4.2592592592E+01               0
GRID*                615               02.5031308467E+004.3283181323E+00+
*       4.0740740740E+01               0
GRID*                616               08.7239170913E-014.9232870166E+00+
*       4.2592592188E+01               0
GRID*                617               0-8.638951337E-014.9247928469E+00+
*       4.2592592004E+01               0
GRID*                618               0-8.638986288E-014.9247924878E+00+
*       4.0740740187E+01               0
GRID*                619               0-2.496086194E+004.3323845176E+00+
*       4.2592592592E+01               0
GRID*                620               0-3.827977586E+003.2165446086E+00+
*       4.2592594812E+01               0
GRID*                621               0-3.827952053E+003.2165771061E+00+
*       4.0740742465E+01               0
GRID*                622               0-4.697589099E+001.7123510618E+00+
*       4.2592588968E+01               0
GRID*                623               0-5.000000000E+00-5.566314284E-12+
*       4.2592592593E+01               0
GRID*                624               0-5.000000000E+00-5.759231899E-12+
*       4.0740740741E+01               0
GRID*                625               0-4.697592069E+00-1.712344005E+00+
*       4.2592596079E+01               0
GRID*                626               0-3.828039992E+00-3.216465179E+00+
*       4.2592589145E+01               0
GRID*                627               0-3.828036182E+00-3.216470028E+00+
*       4.0740737364E+01               0
GRID*                628               0-2.496086187E+00-4.332384521E+00+
*       4.2592592593E+01               0
GRID*                629               0-8.638715604E-01-4.924795269E+00+
*       4.2592593416E+01               0
GRID*                630               0-8.638696985E-01-4.924795460E+00+
*       4.0740741583E+01               0
GRID*                631               08.7220379666E-01-4.923318326E+00+
*       4.2592591120E+01               0
GRID*                632               02.5031308567E+00-4.328318126E+00+
*       4.2592592593E+01               0
GRID*                633               02.5031308579E+00-4.328318125E+00+
*       4.0740740741E+01               0
GRID*                634               03.8317608165E+00-3.212102568E+00+
*       4.2592592561E+01               0
GRID*                635               03.8317586760E+003.2121049404E+00+
*       3.8888888938E+01               0
GRID*                636               02.5031308457E+004.3283181330E+00+
*       3.8888888889E+01               0
GRID*                637               02.5031308447E+004.3283181336E+00+
*       3.7037037037E+01               0
GRID*                638               08.7244356433E-014.9232783766E+00+
*       3.8888887967E+01               0
GRID*                639               0-8.639021539E-014.9247921256E+00+
*       3.8888888371E+01               0
GRID*                640               0-8.639056866E-014.9247917627E+00+
*       3.7037036554E+01               0
GRID*                641               0-2.496086196E+004.3323845167E+00+
*       3.8888888888E+01               0
GRID*                642               0-3.827920652E+003.2166170724E+00+
*       3.8888890005E+01               0
GRID*                643               0-3.827882533E+003.2166655905E+00+
*       3.7037037416E+01               0
GRID*                644               0-4.697598300E+001.7123291995E+00+
*       3.8888885549E+01               0
GRID*                645               0-5.000000000E+00-5.609838824E-12+
*       3.8888888889E+01               0
GRID*                646               0-5.000000000E+00-5.806389539E-12+
*       3.7037037037E+01               0
GRID*                647               0-4.697610005E+00-1.712301391E+00+
*       3.8888891790E+01               0
GRID*                648               0-3.828030791E+00-3.216476890E+00+
*       3.8888885613E+01               0
GRID*                649               0-3.828024049E+00-3.216485471E+00+
*       3.7037033888E+01               0
GRID*                650               0-2.496086185E+00-4.332384522E+00+
*       3.8888888889E+01               0
GRID*                651               0-8.638682397E-01-4.924795610E+00+
*       3.8888889745E+01               0
GRID*                652               0-8.638672532E-01-4.924795711E+00+
*       3.7037037903E+01               0
GRID*                653               08.7219734147E-01-4.923319402E+00+
*       3.8888887335E+01               0
GRID*                654               02.5031308591E+00-4.328318124E+00+
*       3.8888888889E+01               0
GRID*                655               02.5031308603E+00-4.328318124E+00+
*       3.7037037037E+01               0
GRID*                656               03.8317613539E+00-3.212101972E+00+
*       3.8888888862E+01               0
GRID*                657               03.8317585217E+003.2121051114E+00+
*       3.5185185235E+01               0
GRID*                658               02.5031308437E+004.3283181342E+00+
*       3.5185185185E+01               0
GRID*                659               02.5031308428E+004.3283181348E+00+
*       3.3333333333E+01               0
GRID*                660               08.7247247602E-014.9232735594E+00+
*       3.5185183966E+01               0
GRID*                661               0-8.639092059E-014.9247914011E+00+
*       3.5185184738E+01               0
GRID*                662               0-8.639126920E-014.9247910430E+00+
*       3.3333332921E+01               0
GRID*                663               0-2.496086197E+004.3323845159E+00+
*       3.5185185184E+01               0
GRID*                664               0-3.827839486E+003.2167203800E+00+
*       3.5185184731E+01               0
GRID*                665               0-3.827804231E+003.2167652512E+00+
*       3.3333332196E+01               0
GRID*                666               0-4.697609490E+001.7123026134E+00+
*       3.5185182194E+01               0
GRID*                667               0-5.000000000E+00-5.664407987E-12+
*       3.5185185185E+01               0
GRID*                668               0-5.000000000E+00-5.853692502E-12+
*       3.3333333333E+01               0
GRID*                669               0-4.697639395E+00-1.712231563E+00+
*       3.5185187133E+01               0
GRID*                670               0-3.828016169E+00-3.216495501E+00+
*       3.5185182185E+01               0
GRID*                671               0-3.828007349E+00-3.216506727E+00+
*       3.3333330500E+01               0
GRID*                672               0-2.496086183E+00-4.332384523E+00+
*       3.5185185186E+01               0
GRID*                673               0-8.638668204E-01-4.924795756E+00+
*       3.5185186055E+01               0
GRID*                674               0-8.638670382E-01-4.924795733E+00+
*       3.3333334200E+01               0
GRID*                675               08.7220106152E-01-4.923318782E+00+
*       3.5185183648E+01               0
GRID*                676               02.5031308615E+00-4.328318123E+00+
*       3.5185185185E+01               0
GRID*                677               02.5031308626E+00-4.328318122E+00+
*       3.3333333334E+01               0
GRID*                678               03.8317618910E+00-3.212101376E+00+
*       3.5185185163E+01               0
GRID*                679               03.8317585507E+003.2121050793E+00+
*       3.1481481531E+01               0
GRID*                680               02.5031308419E+004.3283181354E+00+
*       3.1481481481E+01               0
GRID*                681               02.5031308410E+004.3283181360E+00+
*       2.9629629629E+01               0
GRID*                682               08.7248329124E-014.9232717574E+00+
*       3.1481480138E+01               0
GRID*                683               0-8.639161258E-014.9247906902E+00+
*       3.1481481104E+01               0
GRID*                684               0-8.639194891E-014.9247903447E+00+
*       2.9629629285E+01               0
GRID*                685               0-2.496086199E+004.3323845151E+00+
*       3.1481481481E+01               0
GRID*                686               0-3.827777615E+003.2167991272E+00+
*       3.1481479827E+01               0
GRID*                687               0-3.827758680E+003.2168232275E+00+
*       2.9629627605E+01               0
GRID*                688               0-4.697621932E+001.7122730534E+00+
*       3.1481478881E+01               0
GRID*                689               0-5.000000000E+00-5.707932526E-12+
*       3.1481481481E+01               0
GRID*                690               0-5.000000000E+00-5.902666691E-12+
*       2.9629629630E+01               0
GRID*                691               0-4.697684155E+00-1.712125219E+00+
*       3.1481481983E+01               0
GRID*                692               0-3.827997775E+00-3.216518913E+00+
*       3.1481478830E+01               0
GRID*                693               0-3.827987622E+00-3.216531835E+00+
*       2.9629627171E+01               0
GRID*                694               0-2.496086182E+00-4.332384524E+00+
*       3.1481481482E+01               0
GRID*                695               0-8.638680239E-01-4.924795632E+00+
*       3.1481482337E+01               0
GRID*                696               0-8.638699210E-01-4.924795437E+00+
*       2.9629630465E+01               0
GRID*                697               08.7221240735E-01-4.923316892E+00+
*       3.1481480037E+01               0
GRID*                698               02.5031308638E+00-4.328318121E+00+
*       3.1481481482E+01               0
GRID*                699               02.5031308650E+00-4.328318121E+00+
*       2.9629629630E+01               0
GRID*                700               03.8317624160E+00-3.212100795E+00+
*       3.1481481465E+01               0
GRID*                701               03.8317588372E+003.2121047617E+00+
*       2.7777777825E+01               0
GRID*                702               02.5031308402E+004.3283181365E+00+
*       2.7777777777E+01               0
GRID*                703               02.5031308394E+004.3283181370E+00+
*       2.5925925926E+01               0
GRID*                704               08.7248024720E-014.9232722646E+00+
*       2.7777776444E+01               0
GRID*                705               0-8.639227646E-014.9247900081E+00+
*       2.7777777467E+01               0
GRID*                706               0-8.639259353E-014.9247896824E+00+
*       2.5925925647E+01               0
GRID*                707               0-2.496086200E+004.3323845144E+00+
*       2.7777777777E+01               0
GRID*                708               0-3.827746519E+003.2168387062E+00+
*       2.7777775513E+01               0
GRID*                709               0-3.827740270E+003.2168466595E+00+
*       2.5925923535E+01               0
GRID*                710               0-4.697634976E+001.7122420622E+00+
*       2.7777775589E+01               0
GRID*                711               0-5.000000000E+00-5.757052039E-12+
*       2.7777777778E+01               0
GRID*                712               0-5.000000000E+00-5.949969654E-12+
*       2.5925925926E+01               0
GRID*                713               0-4.697735659E+00-1.712002849E+00+
*       2.7777776614E+01               0
GRID*                714               0-3.827977056E+00-3.216545283E+00+
*       2.7777775520E+01               0
GRID*                715               0-3.827966234E+00-3.216559057E+00+
*       2.5925923875E+01               0
GRID*                716               0-2.496086180E+00-4.332384525E+00+
*       2.7777777778E+01               0
GRID*                717               0-8.638729085E-01-4.924795130E+00+
*       2.7777778582E+01               0
GRID*                718               0-8.638772133E-01-4.924794688E+00+
*       2.5925926686E+01               0
GRID*                719               08.7222915023E-01-4.923314102E+00+
*       2.7777776479E+01               0
GRID*                720               02.5031308661E+00-4.328318120E+00+
*       2.7777777778E+01               0
GRID*                721               02.5031308672E+00-4.328318119E+00+
*       2.5925925926E+01               0
GRID*                722               03.8317629180E+00-3.212100238E+00+
*       2.7777777766E+01               0
GRID*                723               03.8317594974E+003.2121040299E+00+
*       2.4074074117E+01               0
GRID*                724               02.5031308387E+004.3283181375E+00+
*       2.4074074074E+01               0
GRID*                725               02.5031308380E+004.3283181379E+00+
*       2.2222222222E+01               0
GRID*                726               08.7246712000E-014.9232744518E+00+
*       2.4074072849E+01               0
GRID*                727               0-8.639289850E-014.9247893691E+00+
*       2.4074073826E+01               0
GRID*                728               0-8.639318979E-014.9247890698E+00+
*       2.2222222003E+01               0
GRID*                729               0-2.496086201E+004.3323845138E+00+
*       2.4074074073E+01               0
GRID*                730               0-3.827739112E+003.2168481334E+00+
*       2.4074071656E+01               0
GRID*                731               0-3.827742258E+003.2168441292E+00+
*       2.2222219859E+01               0
GRID*                732               0-4.697648039E+001.7122110263E+00+
*       2.4074072300E+01               0
GRID*                733               0-5.000000000E+00-5.806062560E-12+
*       2.4074074074E+01               0
GRID*                734               0-5.000000000E+00-6.000724062E-12+
*       2.2222222222E+01               0
GRID*                735               0-4.697762892E+00-1.711938148E+00+
*       2.4074072020E+01               0
GRID*                736               0-3.827955307E+00-3.216572965E+00+
*       2.4074072232E+01               0
GRID*                737               0-3.827944418E+00-3.216586824E+00+
*       2.2222220589E+01               0
GRID*                738               0-2.496086178E+00-4.332384526E+00+
*       2.4074074074E+01               0
GRID*                739               0-8.638831286E-01-4.924794080E+00+
*       2.4074074773E+01               0
GRID*                740               0-8.638910417E-01-4.924793267E+00+
*       2.2222222839E+01               0
GRID*                741               08.7224930400E-01-4.923310744E+00+
*       2.4074072958E+01               0
GRID*                742               02.5031308683E+00-4.328318118E+00+
*       2.4074074074E+01               0
GRID*                743               02.5031308694E+00-4.328318118E+00+
*       2.2222222222E+01               0
GRID*                744               03.8317633873E+00-3.212099718E+00+
*       2.4074074067E+01               0
GRID*                745               03.8317607270E+003.2121026668E+00+
*       2.0370370403E+01               0
GRID*                746               02.5031308373E+004.3283181383E+00+
*       2.0370370370E+01               0
GRID*                747               02.5031308367E+004.3283181387E+00+
*       1.8518518518E+01               0
GRID*                748               08.7244733189E-014.9232777489E+00+
*       2.0370369323E+01               0
GRID*                749               0-8.639346586E-014.9247887862E+00+
*       2.0370370179E+01               0
GRID*                750               0-8.639372521E-014.9247885197E+00+
*       1.8518518354E+01               0
GRID*                751               0-2.496086202E+004.3323845132E+00+
*       2.0370370369E+01               0
GRID*                752               0-3.827748953E+003.2168356088E+00+
*       2.0370368132E+01               0
GRID*                753               0-3.827758467E+003.2168234995E+00+
*       1.8518516459E+01               0
GRID*                754               0-4.697660587E+001.7121812122E+00+
*       2.0370368997E+01               0
GRID*                755               0-5.000000000E+00-5.853256530E-12+
*       2.0370370370E+01               0
GRID*                756               0-5.000000000E+00-6.051587464E-12+
*       1.8518518519E+01               0
GRID*                757               0-4.697770178E+00-1.711920837E+00+
*       2.0370368064E+01               0
GRID*                758               0-3.827933706E+00-3.216600458E+00+
*       2.0370368942E+01               0
GRID*                759               0-3.827923304E+00-3.216613698E+00+
*       1.8518517291E+01               0
GRID*                760               0-2.496086177E+00-4.332384527E+00+
*       2.0370370371E+01               0
GRID*                761               0-8.639014766E-01-4.924792195E+00+
*       2.0370370879E+01               0
GRID*                762               0-8.639151624E-01-4.924790789E+00+
*       1.8518518887E+01               0
GRID*                763               08.7227106860E-01-4.923307118E+00+
*       2.0370369458E+01               0
GRID*                764               02.5031308704E+00-4.328318117E+00+
*       2.0370370371E+01               0
GRID*                765               02.5031308714E+00-4.328318116E+00+
*       1.8518518519E+01               0
GRID*                766               03.8317638144E+00-3.212099244E+00+
*       2.0370370367E+01               0
GRID*                767               03.8317628898E+003.2121002693E+00+
*       1.6666666683E+01               0
GRID*                768               02.5031308361E+004.3283181391E+00+
*       1.6666666666E+01               0
GRID*                769               02.5031308356E+004.3283181394E+00+
*       1.4814814814E+01               0
GRID*                770               08.7242402986E-014.9232816314E+00+
*       1.6666665836E+01               0
GRID*                771               0-8.639396638E-014.9247882719E+00+
*       1.6666666527E+01               0
GRID*                772               0-8.639418793E-014.9247880443E+00+
*       1.4814814698E+01               0
GRID*                773               0-2.496086203E+004.3323845127E+00+
*       1.6666666665E+01               0
GRID*                774               0-3.827770096E+003.2168086973E+00+
*       1.6666664828E+01               0
GRID*                775               0-3.827783160E+003.2167920708E+00+
*       1.4814813226E+01               0
GRID*                776               0-4.697672128E+001.7121537931E+00+
*       1.6666665666E+01               0
GRID*                777               0-5.000000000E+00-5.907607707E-12+
*       1.6666666667E+01               0
GRID*                778               0-5.000000000E+00-6.100561653E-12+
*       1.4814814815E+01               0
GRID*                779               0-4.697763382E+00-1.711936983E+00+
*       1.6666664561E+01               0
GRID*                780               0-3.827913340E+00-3.216626380E+00+
*       1.6666665632E+01               0
GRID*                781               0-3.827903939E+00-3.216638345E+00+
*       1.4814813962E+01               0
GRID*                782               0-2.496086176E+00-4.332384527E+00+
*       1.6666666667E+01               0
GRID*                783               0-8.639331473E-01-4.924788941E+00+
*       1.6666666849E+01               0
GRID*                784               0-8.639564647E-01-4.924786546E+00+
*       1.4814814757E+01               0
GRID*                785               08.7229278876E-01-4.923303499E+00+
*       1.6666665964E+01               0
GRID*                786               02.5031308723E+00-4.328318116E+00+
*       1.6666666667E+01               0
GRID*                787               02.5031308732E+00-4.328318115E+00+
*       1.4814814815E+01               0
GRID*                788               03.8317641905E+00-3.212098828E+00+
*       1.6666666668E+01               0
GRID*                789               03.8317662797E+003.2120965116E+00+
*       1.2962962954E+01               0
GRID*                790               02.5031308352E+004.3283181397E+00+
*       1.2962962963E+01               0
GRID*                791               02.5031308348E+004.3283181400E+00+
*       1.1111111111E+01               0
GRID*                792               08.7240014424E-014.9232856112E+00+
*       1.2962962365E+01               0
GRID*                793               0-8.639438845E-014.9247878383E+00+
*       1.2962962868E+01               0
GRID*                794               0-8.639456655E-014.9247876553E+00+
*       1.1111111035E+01               0
GRID*                795               0-2.496086204E+004.3323845123E+00+
*       1.2962962962E+01               0
GRID*                796               0-3.827796993E+003.2167744638E+00+
*       1.2962961640E+01               0
GRID*                797               0-3.827810951E+003.2167566979E+00+
*       1.1111110058E+01               0
GRID*                798               0-4.697682198E+001.7121298685E+00+
*       1.2962962294E+01               0
GRID*                799               0-5.000000000E+00-5.951386563E-12+
*       1.2962962963E+01               0
GRID*                800               0-5.000000000E+00-6.147719292E-12+
*       1.1111111111E+01               0
GRID*                801               0-4.697748001E+00-1.711973526E+00+
*       1.2962961341E+01               0
GRID*                802               0-3.827895222E+00-3.216649440E+00+
*       1.2962962281E+01               0
GRID*                803               0-3.827887308E+00-3.216659513E+00+
*       1.1111110585E+01               0
GRID*                804               0-2.496086176E+00-4.332384527E+00+
*       1.2962962963E+01               0
GRID*                805               0-8.639736615E-01-4.924784779E+00+
*       1.2962962727E+01               0
GRID*                806               0-8.639811307E-01-4.924784012E+00+
*       1.1111110796E+01               0
GRID*                807               08.7231292316E-01-4.923300144E+00+
*       1.2962962464E+01               0
GRID*                808               02.5031308739E+00-4.328318115E+00+
*       1.2962962963E+01               0
GRID*                809               02.5031308745E+00-4.328318114E+00+
*       1.1111111111E+01               0
GRID*                810               03.8317645072E+00-3.212098476E+00+
*       1.2962962967E+01               0
GRID*                811               03.8317673596E+003.2120953145E+00+
*       9.2592592441E+00               0
GRID*                812               02.5031308344E+004.3283181402E+00+
*       9.2592592589E+00               0
GRID*                813               02.5031308341E+004.3283181404E+00+
*       7.4074074070E+00               0
GRID*                814               08.7237843291E-014.9232892287E+00+
*       9.2592588834E+00               0
GRID*                815               0-8.639472087E-014.9247874968E+00+
*       9.2592592005E+00               0
GRID*                816               0-8.639485008E-014.9247873641E+00+
*       7.4074073640E+00               0
GRID*                817               0-2.496086205E+004.3323845120E+00+
*       9.2592592580E+00               0
GRID*                818               0-3.827824404E+003.2167395751E+00+
*       9.2592584684E+00               0
GRID*                819               0-3.827836736E+003.2167238794E+00+
*       7.4074068588E+00               0
GRID*                820               0-4.697690358E+001.7121104797E+00+
*       9.2592588683E+00               0
GRID*                821               0-5.000000000E+00-6.003957521E-12+
*       9.2592592593E+00               0
GRID*                822               0-5.000000000E+00-6.198637190E-12+
*       7.4074074074E+00               0
GRID*                823               0-4.697729240E+00-1.712018100E+00+
*       9.2592582384E+00               0
GRID*                824               0-3.827880311E+00-3.216668419E+00+
*       9.2592588729E+00               0
GRID*                825               0-3.827874344E+00-3.216676013E+00+
*       7.4074071423E+00               0
GRID*                826               0-2.496086176E+00-4.332384527E+00+
*       9.2592592593E+00               0
GRID*                827               0-8.639812185E-01-4.924784003E+00+
*       9.2592589408E+00               0
GRID*                828               0-8.639762377E-01-4.924784514E+00+
*       7.4074071379E+00               0
GRID*                829               08.7233002119E-01-4.923297295E+00+
*       9.2592589449E+00               0
GRID*                830               02.5031308749E+00-4.328318114E+00+
*       9.2592592595E+00               0
GRID*                831               02.5031308748E+00-4.328318114E+00+
*       7.4074074076E+00               0
GRID*                832               03.8317647563E+00-3.212098200E+00+
*       9.2592592653E+00               0
GRID*                833               03.8317664723E+003.2120962980E+00+
*       5.5555555493E+00               0
GRID*                834               02.5031308339E+004.3283181405E+00+
*       5.5555555552E+00               0
GRID*                835               02.5031308337E+004.3283181406E+00+
*       3.7037037033E+00               0
GRID*                836               08.7236151509E-014.9232920475E+00+
*       5.5555553709E+00               0
GRID*                837               0-8.639495283E-014.9247872585E+00+
*       5.5555555255E+00               0
GRID*                838               0-8.639502782E-014.9247871814E+00+
*       3.7037036852E+00               0
GRID*                839               0-2.496086205E+004.3323845118E+00+
*       5.5555555544E+00               0
GRID*                840               0-3.827847344E+003.2167103785E+00+
*       5.5555552182E+00               0
GRID*                841               0-3.827855635E+003.2166998257E+00+
*       3.7037035355E+00               0
GRID*                842               0-4.697696191E+001.7120966208E+00+
*       5.5555553775E+00               0
GRID*                843               0-5.000000000E+00-6.051160574E-12+
*       5.5555555556E+00               0
GRID*                844               0-5.000000000E+00-6.242207143E-12+
*       3.7037037037E+00               0
GRID*                845               0-4.697712068E+00-1.712058899E+00+
*       5.5555550998E+00               0
GRID*                846               0-3.827869517E+00-3.216682156E+00+
*       5.5555553914E+00               0
GRID*                847               0-3.827865939E+00-3.216686711E+00+
*       3.7037036186E+00               0
GRID*                848               0-2.496086181E+00-4.332384525E+00+
*       5.5555555556E+00               0
GRID*                849               0-8.639684713E-01-4.924785312E+00+
*       5.5555553648E+00               0
GRID*                850               0-8.639601749E-01-4.924786165E+00+
*       3.7037035988E+00               0
GRID*                851               08.7234270517E-01-4.923295182E+00+
*       5.5555553969E+00               0
GRID*                852               02.5031308741E+00-4.328318115E+00+
*       5.5555555558E+00               0
GRID*                853               02.5031308715E+00-4.328318116E+00+
*       3.7037037039E+00               0
GRID*                854               03.8317649300E+00-3.212098008E+00+
*       5.5555555617E+00               0
GRID*                855               04.6988889564E+001.7089131294E+00+
*       9.8148148172E+01               0
GRID*                856               04.6988883481E+001.7089148758E+00+
*       9.6296296348E+01               0
GRID*                857               03.8317650204E+003.2120979075E+00+
*       9.8148148145E+01               0
GRID*                858               04.6988874005E+001.7089175965E+00+
*       9.4444444529E+01               0
GRID*                859               04.6988861689E+001.7089211327E+00+
*       9.2592592713E+01               0
GRID*                860               04.6988847094E+001.7089253232E+00+
*       9.0740740900E+01               0
GRID*                861               04.6988830795E+001.7089300031E+00+
*       8.8888889088E+01               0
GRID*                862               04.6988813376E+001.7089350042E+00+
*       8.7037037276E+01               0
GRID*                863               04.6988795440E+001.7089401541E+00+
*       8.5185185464E+01               0
GRID*                864               04.6988777600E+001.7089452763E+00+
*       8.3333333650E+01               0
GRID*                865               04.6988760490E+001.7089501890E+00+
*       8.1481481833E+01               0
GRID*                866               04.6988744760E+001.7089547052E+00+
*       7.9629630012E+01               0
GRID*                867               04.6988731085E+001.7089586317E+00+
*       7.7777778186E+01               0
GRID*                868               04.6988720160E+001.7089617684E+00+
*       7.5925926352E+01               0
GRID*                869               04.6988712711E+001.7089639073E+00+
*       7.4074074511E+01               0
GRID*                870               04.6988709490E+001.7089648318E+00+
*       7.2222222660E+01               0
GRID*                871               04.6988711289E+001.7089643154E+00+
*       7.0370370798E+01               0
GRID*                872               04.6988718934E+001.7089621204E+00+
*       6.8518518924E+01               0
GRID*                873               04.6988733298E+001.7089579963E+00+
*       6.6666667034E+01               0
GRID*                874               04.6988755304E+001.7089516778E+00+
*       6.4814815129E+01               0
GRID*                875               04.6988785936E+001.7089428829E+00+
*       6.2962963204E+01               0
GRID*                876               04.6988826241E+001.7089313106E+00+
*       6.1111111259E+01               0
GRID*                877               04.6988877347E+001.7089166371E+00+
*       5.9259259292E+01               0
GRID*                878               04.6988933925E+001.7089003926E+00+
*       5.7407407312E+01               0
GRID*                879               04.6988981454E+001.7088867459E+00+
*       5.5555555352E+01               0
GRID*                880               04.6989020382E+001.7088755690E+00+
*       5.3703703411E+01               0
GRID*                881               04.6989051697E+001.7088665778E+00+
*       5.1851851486E+01               0
GRID*                882               04.6989076265E+001.7088595239E+00+
*       4.9999999576E+01               0
GRID*                883               04.6989094848E+001.7088541885E+00+
*       4.8148147679E+01               0
GRID*                884               04.6989108123E+001.7088503770E+00+
*       4.6296295793E+01               0
GRID*                885               04.6989116696E+001.7088479153E+00+
*       4.4444443917E+01               0
GRID*                886               04.6989121117E+001.7088466462E+00+
*       4.2592592050E+01               0
GRID*                887               04.6989121880E+001.7088464269E+00+
*       4.0740740192E+01               0
GRID*                888               04.6989119442E+001.7088471269E+00+
*       3.8888888340E+01               0
GRID*                889               04.6989114221E+001.7088486260E+00+
*       3.7037036494E+01               0
GRID*                890               04.6989106605E+001.7088508128E+00+
*       3.5185184654E+01               0
GRID*                891               04.6989096954E+001.7088535839E+00+
*       3.3333332819E+01               0
GRID*                892               04.6989085605E+001.7088568422E+00+
*       3.1481480987E+01               0
GRID*                893               04.6989072877E+001.7088604967E+00+
*       2.9629629159E+01               0
GRID*                894               04.6989059069E+001.7088644611E+00+
*       2.7777777334E+01               0
GRID*                895               04.6989044467E+001.7088686538E+00+
*       2.5925925511E+01               0
GRID*                896               04.6989029341E+001.7088729967E+00+
*       2.4074073689E+01               0
GRID*                897               04.6989013951E+001.7088774155E+00+
*       2.2222221869E+01               0
GRID*                898               04.6988998546E+001.7088818386E+00+
*       2.0370370050E+01               0
GRID*                899               04.6988983365E+001.7088861974E+00+
*       1.8518518231E+01               0
GRID*                900               04.6988968640E+001.7088904252E+00+
*       1.6666666413E+01               0
GRID*                901               04.6988954595E+001.7088944578E+00+
*       1.4814814594E+01               0
GRID*                902               04.6988941447E+001.7088982327E+00+
*       1.2962962774E+01               0
GRID*                903               04.6988929409E+001.7089016892E+00+
*       1.1111110954E+01               0
GRID*                904               04.6988918685E+001.7089047681E+00+
*       9.2592591322E+00               0
GRID*                905               04.6988909479E+001.7089074114E+00+
*       7.4074073092E+00               0
GRID*                906               04.6988901986E+001.7089095626E+00+
*       5.5555554846E+00               0
GRID*                907               04.6988896402E+001.7089111661E+00+
*       3.7037036582E+00               0
GRID*                908               04.6988892914E+001.7089121674E+00+
*       1.8518518301E+00               0
GRID*                909               03.8317652584E+003.2120976437E+00+
*       1.8518518533E+00               0
GRID*                910               02.5031308336E+004.3283181407E+00+
*       1.8518518515E+00               0
GRID*                911               08.7235189752E-014.9232936500E+00+
*       1.8518518070E+00               0
GRID*                912               0-8.639507375E-014.9247871343E+00+
*       1.8518518432E+00               0
GRID*                913               0-2.496086205E+004.3323845116E+00+
*       1.8518518510E+00               0
GRID*                914               0-3.827861028E+003.2166929612E+00+
*       1.8518517996E+00               0
GRID*                915               0-4.697699295E+001.7120892477E+00+
*       1.8518518126E+00               0
GRID*                916               0-5.000000000E+00-6.098286424E-12+
*       1.8518518519E+00               0
GRID*                917               0-4.697701265E+00-1.712084568E+00+
*       1.8518517761E+00               0
GRID*                918               0-3.827863716E+00-3.216689541E+00+
*       1.8518518220E+00               0
GRID*                919               0-2.496086208E+00-4.332384510E+00+
*       1.8518518518E+00               0
GRID*                920               0-8.639535794E-01-4.924786842E+00+
*       1.8518518179E+00               0
GRID*                921               08.7234965660E-01-4.923294023E+00+
*       1.8518518103E+00               0
GRID*                922               02.5031308617E+00-4.328318123E+00+
*       1.8518518520E+00               0
GRID*                923               03.8317650204E+00-3.212097908E+00+
*       1.8518518551E+00               0
GRID*                924               04.6988889564E+00-1.708913129E+00+
*       1.8518518283E+00               0
GRID*                925               04.6988883481E+00-1.708914876E+00+
*       3.7037036516E+00               0
GRID*                926               04.6988874005E+00-1.708917596E+00+
*       5.5555554708E+00               0
GRID*                927               04.6988861689E+00-1.708921133E+00+
*       7.4074072867E+00               0
GRID*                928               04.6988847094E+00-1.708925323E+00+
*       9.2592591002E+00               0
GRID*                929               04.6988830795E+00-1.708930003E+00+
*       1.1111110912E+01               0
GRID*                930               04.6988813376E+00-1.708935004E+00+
*       1.2962962724E+01               0
GRID*                931               04.6988795440E+00-1.708940154E+00+
*       1.4814814536E+01               0
GRID*                932               04.6988777600E+00-1.708945276E+00+
*       1.6666666350E+01               0
GRID*                933               04.6988760490E+00-1.708950189E+00+
*       1.8518518167E+01               0
GRID*                934               04.6988744760E+00-1.708954705E+00+
*       2.0370369988E+01               0
GRID*                935               04.6988731085E+00-1.708958632E+00+
*       2.2222221814E+01               0
GRID*                936               04.6988720160E+00-1.708961768E+00+
*       2.4074073648E+01               0
GRID*                937               04.6988712711E+00-1.708963907E+00+
*       2.5925925489E+01               0
GRID*                938               04.6988709490E+00-1.708964832E+00+
*       2.7777777340E+01               0
GRID*                939               04.6988711289E+00-1.708964315E+00+
*       2.9629629202E+01               0
GRID*                940               04.6988718934E+00-1.708962120E+00+
*       3.1481481076E+01               0
GRID*                941               04.6988733298E+00-1.708957996E+00+
*       3.3333332966E+01               0
GRID*                942               04.6988755304E+00-1.708951678E+00+
*       3.5185184871E+01               0
GRID*                943               04.6988785936E+00-1.708942883E+00+
*       3.7037036796E+01               0
GRID*                944               04.6988826241E+00-1.708931311E+00+
*       3.8888888741E+01               0
GRID*                945               04.6988877347E+00-1.708916637E+00+
*       4.0740740708E+01               0
GRID*                946               04.6988933925E+00-1.708900393E+00+
*       4.2592592688E+01               0
GRID*                947               04.6988981454E+00-1.708886746E+00+
*       4.4444444648E+01               0
GRID*                948               04.6989020382E+00-1.708875569E+00+
*       4.6296296589E+01               0
GRID*                949               04.6989051697E+00-1.708866578E+00+
*       4.8148148514E+01               0
GRID*                950               04.6989076265E+00-1.708859524E+00+
*       5.0000000424E+01               0
GRID*                951               04.6989094848E+00-1.708854189E+00+
*       5.1851852321E+01               0
GRID*                952               04.6989108123E+00-1.708850377E+00+
*       5.3703704207E+01               0
GRID*                953               04.6989116696E+00-1.708847915E+00+
*       5.5555556083E+01               0
GRID*                954               04.6989121117E+00-1.708846646E+00+
*       5.7407407950E+01               0
GRID*                955               04.6989121880E+00-1.708846427E+00+
*       5.9259259808E+01               0
GRID*                956               04.6989119442E+00-1.708847127E+00+
*       6.1111111660E+01               0
GRID*                957               04.6989114221E+00-1.708848626E+00+
*       6.2962963506E+01               0
GRID*                958               04.6989106605E+00-1.708850813E+00+
*       6.4814815346E+01               0
GRID*                959               04.6989096954E+00-1.708853584E+00+
*       6.6666667181E+01               0
GRID*                960               04.6989085605E+00-1.708856842E+00+
*       6.8518519013E+01               0
GRID*                961               04.6989072877E+00-1.708860497E+00+
*       7.0370370841E+01               0
GRID*                962               04.6989059069E+00-1.708864461E+00+
*       7.2222222666E+01               0
GRID*                963               04.6989044467E+00-1.708868654E+00+
*       7.4074074489E+01               0
GRID*                964               04.6989029341E+00-1.708872997E+00+
*       7.5925926311E+01               0
GRID*                965               04.6989013951E+00-1.708877415E+00+
*       7.7777778131E+01               0
GRID*                966               04.6988998546E+00-1.708881839E+00+
*       7.9629629950E+01               0
GRID*                967               04.6988983365E+00-1.708886197E+00+
*       8.1481481769E+01               0
GRID*                968               04.6988968640E+00-1.708890425E+00+
*       8.3333333587E+01               0
GRID*                969               04.6988954595E+00-1.708894458E+00+
*       8.5185185406E+01               0
GRID*                970               04.6988941447E+00-1.708898233E+00+
*       8.7037037226E+01               0
GRID*                971               04.6988929409E+00-1.708901689E+00+
*       8.8888889046E+01               0
GRID*                972               04.6988918685E+00-1.708904768E+00+
*       9.0740740868E+01               0
GRID*                973               04.6988909479E+00-1.708907411E+00+
*       9.2592592691E+01               0
GRID*                974               04.6988901986E+00-1.708909563E+00+
*       9.4444444515E+01               0
GRID*                975               04.6988896402E+00-1.708911166E+00+
*       9.6296296342E+01               0
GRID*                976               03.8317652584E+00-3.212097644E+00+
*       9.8148148147E+01               0
GRID*                977               04.6988892914E+00-1.708912167E+00+
*       9.8148148170E+01               0
GRID*                978               08.7235189752E-01-4.923293650E+00+
*       9.8148148193E+01               0
GRID*                979               02.5031308336E+00-4.328318141E+00+
*       9.8148148148E+01               0
GRID*                980               0-2.496086205E+00-4.332384512E+00+
*       9.8148148149E+01               0
GRID*                981               0-8.639507375E-01-4.924787134E+00+
*       9.8148148157E+01               0
GRID*                982               0-4.697699295E+00-1.712089248E+00+
*       9.8148148187E+01               0
GRID*                983               0-3.827861028E+00-3.216692961E+00+
*       9.8148148200E+01               0
GRID*                984               0-4.697701265E+001.7120845676E+00+
*       9.8148148224E+01               0
GRID*                985               0-5.000000000E+00-5.180188407E-12+
*       9.8148148148E+01               0
GRID*                986               0-2.496086208E+004.3323845104E+00+
*       9.8148148148E+01               0
GRID*                987               0-3.827863716E+003.2166895406E+00+
*       9.8148148178E+01               0
GRID*                988               08.7234965660E-014.9232940234E+00+
*       9.8148148190E+01               0
GRID*                989               0-8.639535794E-014.9247868423E+00+
*       9.8148148182E+01               0
GRID*                990               02.5031308617E+004.3283181227E+00+
*       9.8148148148E+01               0
GRID*                991               0-3.533854421E-012.0216511338E+00+
*       0.0000000000E+00               0
GRID*                992               0-1.570250179E+00-1.319845292E+00+
*       0.0000000000E+00               0
GRID*                993               01.9312966529E+00-7.020429037E-01+
*       0.0000000000E+00               0
GRID*                994               0-1.424735822E+003.1770178206E+00+
*       0.0000000000E+00               0
GRID*                995               02.5948248640E-013.4724725516E+00+
*       0.0000000000E+00               0
GRID*                996               0-3.133975491E+00-1.515968089E+00+
*       0.0000000000E+00               0
GRID*                997               0-2.033168190E+00-2.826114900E+00+
*       0.0000000000E+00               0
GRID*                998               0-3.133975491E+001.9612279671E-01+
*       0.0000000000E+00               0
GRID*                999               0-2.525543122E+001.8668710098E+00+
*       0.0000000000E+00               0
GRID*               1000               0-9.618178103E-013.5090292076E-01+
*       0.0000000000E+00               0
GRID*               1001               02.8815308339E+00-1.957070408E+00+
*       0.0000000000E+00               0
GRID*               1002               03.4656483264E+00-3.510214518E-01+
*       0.0000000000E+00               0
GRID*               1003               0-3.489498819E-01-3.121569631E+00+
*       0.0000000000E+00               0
GRID*               1004               01.4018235339E+00-2.812668437E+00+
*       0.0000000000E+00               0
GRID*               1005               01.8052323715E-01-1.010944098E+00+
*       0.0000000000E+00               0
GRID*               1006               07.8895560540E-016.5980411508E-01+
*       0.0000000000E+00               0
GRID*               1007               01.7391897864E+002.6168745233E+00+
*       0.0000000000E+00               0
GRID*               1008               02.8815308339E+001.2550275046E+00+
*       0.0000000000E+00               0
GRID*               1009               01.3479452639E-02-4.125924916E-03+
*       1.0000000000E+02               0
GRID*               1010               0-1.241303375E+002.1641292912E+00+
*       1.0000000000E+02               0
GRID*               1011               04.4291493377E-012.4595840223E+00+
*       1.0000000000E+02               0
GRID*               1012               0-2.342110675E+008.5398248041E-01+
*       1.0000000000E+02               0
GRID*               1013               0-2.342110675E+00-8.581084053E-01+
*       1.0000000000E+02               0
GRID*               1014               0-1.241303375E+00-2.168255216E+00+
*       1.0000000000E+02               0
GRID*               1015               01.9226222338E+001.6039859939E+00+
*       1.0000000000E+02               0
GRID*               1016               02.5067397263E+00-2.062962458E-03+
*       1.0000000000E+02               0
GRID*               1017               04.4291493377E-01-2.463709947E+00+
*       1.0000000000E+02               0
GRID*               1018               01.9226222338E+00-1.608111919E+00+
*       1.0000000000E+02               0
GRID*               1019               0-2.163087291E-01-5.551825388E-02+
*       6.8589676997E+01               0
GRID*               1020               0-3.768730836E-02-1.458610948E-01+
*       6.4930584620E+01               0
GRID*               1021               0-1.827333039E-016.9095477212E-02+
*       7.9636132451E+01               0
GRID*               1022               02.4131528403E-018.3562650239E-03+
*       7.5997426015E+01               0
GRID*               1023               07.5680497938E-021.8311241053E-01+
*       8.3353148112E+01               0
GRID*               1024               0-1.030946229E+00-8.156758260E-01+
*       3.7814955569E+01               0
GRID*               1025               03.9168195716E-011.3623258973E+00+
*       3.5344144626E+01               0
GRID*               1026               0-2.020428269E-02-7.832866670E-02+
*       3.1648084651E+01               0
GRID*               1027               0-1.735867957E+00-2.442231211E+00+
*       4.2497180196E+01               0
GRID*               1028               0-6.425352826E-01-3.363739314E-01+
*       4.4221838769E+01               0
GRID*               1029               02.0098816221E+002.4701758794E-01+
*       4.7631340233E+01               0
GRID*               1030               0-1.667980192E+001.2078375844E-01+
*       4.9510488386E+01               0
GRID*               1031               0-9.927033138E-02-2.041900097E+00+
*       3.4642793281E+01               0
GRID*               1032               06.2685317132E-01-1.457861154E+00+
*       1.5018517870E+01               0
GRID*               1033               0-1.288722000E+001.3310908036E+00+
*       1.8659781210E+01               0
GRID*               1034               0-8.961606546E-015.5940138954E-01+
*       2.4510136737E+01               0
GRID*               1035               01.4192338954E-012.0770120604E+00+
*       5.8049584455E+01               0
GRID*               1036               0-1.008247530E+001.5868377853E+00+
*       5.4347176014E+01               0
GRID*               1037               0-2.591112348E-012.9215778410E-01+
*       6.1606451585E+01               0
GRID*               1038               0-1.861262661E+002.3352890146E+00+
*       3.9518918676E+01               0
GRID*               1039               0-1.555107008E-011.1036722055E-01+
*       9.0694047152E+01               0
GRID*               1040               0-6.002480451E-031.9490314503E-01+
*       8.7042905901E+01               0
GRID*               1041               0-1.036719916E-01-1.982152499E+00+
*       5.4413832811E+01               0
GRID*               1042               04.5120027578E-01-1.431759826E+00+
*       5.7466725851E+01               0
GRID*               1043               02.7575638601E-01-1.369080612E-01+
*       9.4438736008E+01               0
GRID*               1044               01.3880968346E-011.4411994383E-01+
*       7.2351534981E+01               0
GRID*               1045               01.2569709669E-01-4.413361474E-01+
*       5.0640191023E+00               0
GRID*               1046               06.7583885995E-01-7.439775310E-01+
*       8.9029708789E+00               0
GRID*               1047               01.0228460023E-02-3.857164599E-01+
*       2.7990627984E+01               0
GRID*               1048               0-2.456984138E+008.2833271596E-01+
*       6.7628171184E+01               0
GRID*               1049               0-2.456962163E+00-8.839031792E-01+
*       6.7628173232E+01               0
GRID*               1050               0-2.367673427E+007.8316129552E-01+
*       6.5798624995E+01               0
GRID*               1051               0-1.269980187E-01-1.006896743E-01+
*       6.6760130809E+01               0
GRID*               1052               0-2.367651453E+00-9.290745997E-01+
*       6.5798627043E+01               0
GRID*               1053               0-1.339409741E+002.2007400017E+00+
*       7.8706955114E+01               0
GRID*               1054               0-2.440250978E+008.9050996965E-01+
*       7.8706956239E+01               0
GRID*               1055               0-1.127385447E+002.1703703956E+00+
*       7.6887601896E+01               0
GRID*               1056               02.9290990088E-023.8725871118E-02+
*       7.7816779233E+01               0
GRID*               1057               0-2.228226684E+008.6014036355E-01+
*       7.6887603020E+01               0
GRID*               1058               0-1.339409753E+00-2.131644518E+00+
*       7.8706955115E+01               0
GRID*               1059               03.4486227617E-01-2.427090259E+00+
*       7.8706955686E+01               0
GRID*               1060               0-1.127385459E+00-2.162014124E+00+
*       7.6887601897E+01               0
GRID*               1061               05.5688657011E-01-2.457459865E+00+
*       7.6887602468E+01               0
GRID*               1062               04.7398126544E-012.5532088506E+00+
*       8.2417315200E+01               0
GRID*               1063               0-1.210202839E+002.2577484687E+00+
*       8.2417314797E+01               0
GRID*               1064               03.4477436454E-012.4962003839E+00+
*       8.0558807370E+01               0
GRID*               1065               0-5.352640296E-021.2610394387E-01+
*       8.1494640281E+01               0
GRID*               1066               0-1.339409740E+002.2007400020E+00+
*       8.0558806966E+01               0
GRID*               1067               04.7405821520E-01-2.370083619E+00+
*       8.2417315268E+01               0
GRID*               1068               01.9537210779E+00-1.514494612E+00+
*       8.2417314784E+01               0
GRID*               1069               03.4485131431E-01-2.427092086E+00+
*       8.0558807437E+01               0
GRID*               1070               01.8245141770E+00-1.571503079E+00+
*       8.0558806953E+01               0
GRID*               1071               02.5378402490E+009.1556205263E-02+
*       8.2417314797E+01               0
GRID*               1072               02.4086333481E+003.4547738606E-02+
*       8.0558806966E+01               0
GRID*               1073               01.9537222536E+001.6976057194E+00+
*       8.2417314797E+01               0
GRID*               1074               01.8245153527E+001.6405972528E+00+
*       8.0558806967E+01               0
GRID*               1075               0-2.864284643E+00-1.263973103E+00+
*       3.7425997542E+01               0
GRID*               1076               0-2.864302887E+00-1.263929756E+00+
*       3.5574145099E+01               0
GRID*               1077               0-2.864280913E+004.4830613927E-01+
*       3.5574143051E+01               0
GRID*               1078               01.4004076973E+00-2.013888750E+00+
*       3.7425996291E+01               0
GRID*               1079               01.9845268857E+00-4.078379130E-01+
*       3.7425996303E+01               0
GRID*               1080               02.6958409786E+006.8116294866E-01+
*       3.6190590831E+01               0
GRID*               1081               02.1117217902E+00-9.248878880E-01+
*       3.6190590819E+01               0
GRID*               1082               0-3.196321357E-012.7332503564E-01+
*       3.6579550097E+01               0
GRID*               1083               0-2.864274962E+004.4832027799E-01+
*       3.7425994717E+01               0
GRID*               1084               0-2.358909940E+008.1697971893E-01+
*       3.2490707592E+01               0
GRID*               1085               0-1.258145240E+002.1270279244E+00+
*       3.2490708992E+01               0
GRID*               1086               0-1.052202120E+002.8473552064E+00+
*       3.4338738979E+01               0
GRID*               1087               0-2.152966820E+001.5373070009E+00+
*       3.4338737580E+01               0
GRID*               1088               01.8573883723E-016.4199861530E-01+
*       3.3496114638E+01               0
GRID*               1089               0-4.318344172E-01-3.682775158E+00+
*       4.1618959705E+01               0
GRID*               1090               0-4.318281031E-01-3.682774106E+00+
*       4.3470811627E+01               0
GRID*               1091               01.1483823405E-01-2.629845466E+00+
*       4.4333140913E+01               0
GRID*               1092               01.1483191997E-01-2.629846518E+00+
*       4.2481288991E+01               0
GRID*               1093               0-1.189201620E+00-1.389302571E+00+
*       4.3359509483E+01               0
GRID*               1094               01.4410466864E+00-2.338149707E+00+
*       4.6037891646E+01               0
GRID*               1095               02.9208210869E+00-1.482542637E+00+
*       4.6037892322E+01               0
GRID*               1096               06.8367316976E-01-4.467817175E-02+
*       4.5926589501E+01               0
GRID*               1097               01.5946126345E+00-1.774238396E+00+
*       4.4333141590E+01               0
GRID*               1098               0-2.082033191E+002.2265841392E+00+
*       5.0681170118E+01               0
GRID*               1099               0-2.082033192E+002.2265841387E+00+
*       4.8829318267E+01               0
GRID*               1100               0-3.978473338E-012.5220442337E+00+
*       4.8829318587E+01               0
GRID*               1101               0-2.115977071E+00-3.387307867E+00+
*       4.1618960469E+01               0
GRID*               1102               0-1.763516207E+00-2.574030174E+00+
*       3.9277848155E+01               0
GRID*               1103               0-1.383407093E+00-1.628953519E+00+
*       4.0156067883E+01               0
GRID*               1104               0-7.937355304E-02-2.869497466E+00+
*       3.9277847391E+01               0
GRID*               1105               0-1.297678258E+00-3.187142310E+00+
*       3.5839915159E+01               0
GRID*               1106               0-1.297678257E+00-3.187142310E+00+
*       3.3988063307E+01               0
GRID*               1107               0-2.398464939E+00-1.877041891E+00+
*       3.3988063955E+01               0
GRID*               1108               04.2613779293E-012.4224718305E+00+
*       3.2490708342E+01               0
GRID*               1109               06.3208091285E-013.1427991125E+00+
*       3.4338738329E+01               0
GRID*               1110               01.9057771133E+001.5668882292E+00+
*       3.2490709017E+01               0
GRID*               1111               02.1117202333E+002.2872155112E+00+
*       3.4338739005E+01               0
GRID*               1112               0-3.216727229E+00-2.077294223E+00+
*       4.3470814156E+01               0
GRID*               1113               0-3.216730679E+00-3.649451855E-01+
*       4.1618958722E+01               0
GRID*               1114               0-2.670060892E+00-1.024365583E+00+
*       4.4333143442E+01               0
GRID*               1115               0-2.670064342E+006.8798345442E-01+
*       4.2481288009E+01               0
GRID*               1116               0-2.670060393E+006.8799283490E-01+
*       4.4333139739E+01               0
GRID*               1117               02.9208203830E+001.7295610049E+00+
*       4.6037892362E+01               0
GRID*               1118               01.4411185342E+002.5851553233E+00+
*       4.6037892315E+01               0
GRID*               1119               01.5946119306E+001.4378652452E+00+
*       4.4333141629E+01               0
GRID*               1120               01.1491008181E-012.2934595636E+00+
*       4.4333141583E+01               0
GRID*               1121               0-3.182780498E+009.1657726398E-01+
*       5.0681168187E+01               0
GRID*               1122               0-3.182780562E+00-7.957933517E-01+
*       5.0681172054E+01               0
GRID*               1123               0-3.182780562E+009.1657711016E-01+
*       4.8829316332E+01               0
GRID*               1124               03.5049408111E+001.2350879397E-01+
*       4.6037892339E+01               0
GRID*               1125               02.1787323587E+00-1.681869657E-01+
*       4.4333141607E+01               0
GRID*               1126               01.4410604283E+00-2.338147417E+00+
*       4.7889743639E+01               0
GRID*               1127               01.1485197596E-01-2.629843177E+00+
*       4.6184992907E+01               0
GRID*               1128               0-3.978473338E-01-2.401260475E+00+
*       5.0681169798E+01               0
GRID*               1129               01.0818896858E+00-1.545660099E+00+
*       5.0681170098E+01               0
GRID*               1130               0-3.978704785E-01-2.401264332E+00+
*       4.8829317715E+01               0
GRID*               1131               0-3.182780498E+00-7.957935055E-01+
*       4.8829320199E+01               0
GRID*               1132               02.4898978587E+00-3.916433335E-02+
*       3.2490708992E+01               0
GRID*               1133               02.6958409786E+006.8116294866E-01+
*       3.4338738980E+01               0
GRID*               1134               02.2293088519E+008.7711864692E-01+
*       1.4916666344E+01               0
GRID*               1135               02.2293074146E+008.7712024024E-01+
*       1.6768518207E+01               0
GRID*               1136               01.2715198291E+002.2715962193E+00+
*       1.8589149877E+01               0
GRID*               1137               01.2715212665E+002.2715946260E+00+
*       1.6737298014E+01               0
GRID*               1138               0-3.309344142E-01-6.338517544E-02+
*       1.6839149540E+01               0
GRID*               1139               0-1.892404101E+002.8317376585E+00+
*       2.0441001716E+01               0
GRID*               1140               0-2.081320717E-013.1271833995E+00+
*       2.0441001145E+01               0
GRID*               1141               0-1.185139920E-022.7413386924E+00+
*       2.3366178908E+01               0
GRID*               1142               0-1.696123428E+002.4458929515E+00+
*       2.3366179479E+01               0
GRID*               1143               0-1.092441327E+009.4524609657E-01+
*       2.1584958974E+01               0
GRID*               1144               0-2.993188204E+001.5216433474E+00+
*       2.0441000930E+01               0
GRID*               1145               0-2.796907532E+001.1357986404E+00+
*       2.3366178694E+01               0
GRID*               1146               0-1.569310738E+001.9980052933E+00+
*       4.4333141606E+01               0
GRID*               1147               0-3.978123727E-012.5220384086E+00+
*       4.6977466391E+01               0
GRID*               1148               0-2.082033192E+002.2265841383E+00+
*       4.6977466415E+01               0
GRID*               1149               0-1.155257737E+00-1.077950865E-01+
*       4.6866163577E+01               0
GRID*               1150               0-1.763516206E+00-2.574030174E+00+
*       3.7425996303E+01               0
GRID*               1151               0-5.651082800E-01-1.428787961E+00+
*       3.6228874425E+01               0
GRID*               1152               0-2.152988795E+00-1.749288942E-01+
*       3.4338739628E+01               0
GRID*               1153               01.4620581289E-01-3.397870997E-01+
*       3.4993468953E+01               0
GRID*               1154               03.8646779780E-01-3.482609034E+00+
*       3.3988062558E+01               0
GRID*               1155               0-1.258145233E+00-2.205356595E+00+
*       3.2490708992E+01               0
GRID*               1156               0-5.973730703E-02-1.060114382E+00+
*       3.3145438966E+01               0
GRID*               1157               04.2600082215E-01-2.500823319E+00+
*       3.2490708243E+01               0
GRID*               1158               03.8646388309E-01-3.482609686E+00+
*       3.5839914381E+01               0
GRID*               1159               0-2.993245326E+00-1.904168292E-01+
*       2.0441000592E+01               0
GRID*               1160               0-2.796964653E+00-5.762615363E-01+
*       2.3366178356E+01               0
GRID*               1161               0-1.892404089E+00-1.500646861E+00+
*       2.0441001716E+01               0
GRID*               1162               0-1.696123416E+00-1.886491568E+00+
*       2.3366179480E+01               0
GRID*               1163               02.8134265857E+00-7.289305772E-01+
*       1.6768518194E+01               0
GRID*               1164               02.2293085903E+00-2.334980091E+00+
*       1.6768518194E+01               0
GRID*               1165               01.8556390002E+006.6554540180E-01+
*       1.8589149864E+01               0
GRID*               1166               01.2715210049E+00-9.405041124E-01+
*       1.8589149864E+01               0
GRID*               1167               01.4004062883E+001.1982144855E+00+
*       3.9277848179E+01               0
GRID*               1168               01.9845268857E+00-4.078379130E-01+
*       3.9277848155E+01               0
GRID*               1169               02.1787323587E+00-1.681869657E-01+
*       4.2481289755E+01               0
GRID*               1170               01.5946117614E+001.4378654328E+00+
*       4.2481289779E+01               0
GRID*               1171               0-8.367407556E-01-5.760248787E-01+
*       4.1018397169E+01               0
GRID*               1172               0-7.937406554E-02-2.869497551E+00+
*       3.7425995525E+01               0
GRID*               1173               0-1.763516213E+001.7583543452E+00+
*       3.7425996303E+01               0
GRID*               1174               0-1.052202120E+002.8473552068E+00+
*       3.6190590831E+01               0
GRID*               1175               0-2.152960869E+001.5373211397E+00+
*       3.6190589245E+01               0
GRID*               1176               05.0706757013E-013.5001645307E+00+
*       5.6802570698E+01               0
GRID*               1177               0-1.177081399E+003.2046982906E+00+
*       5.6802570005E+01               0
GRID*               1178               0-6.801788951E-023.2550773931E+00+
*       5.4951366478E+01               0
GRID*               1179               0-4.331620701E-011.8319249228E+00+
*       5.6198380235E+01               0
GRID*               1180               0-1.752166859E+002.9596111531E+00+
*       5.4951365785E+01               0
GRID*               1181               0-1.177081398E+003.2046982911E+00+
*       5.8654421857E+01               0
GRID*               1182               0-2.277838204E+001.8946688502E+00+
*       5.8654420240E+01               0
GRID*               1183               01.9868422370E+002.6445571655E+00+
*       5.8654421872E+01               0
GRID*               1184               05.0706125605E-013.5001655827E+00+
*       5.8654422621E+01               0
GRID*               1185               01.9868419706E+002.6445574608E+00+
*       5.6802570022E+01               0
GRID*               1186               01.8662456460E+00-2.627000885E+00+
*       3.5839915147E+01               0
GRID*               1187               01.8662459122E+00-2.627000590E+00+
*       3.3988063297E+01               0
GRID*               1188               01.9057789365E+00-1.645214875E+00+
*       3.2490708982E+01               0
GRID*               1189               0-1.377598710E+002.3122711530E+00+
*       6.0432855422E+01               0
GRID*               1190               0-2.478355517E+001.0022417121E+00+
*       6.0432853805E+01               0
GRID*               1191               0-5.859392264E-021.1845849223E+00+
*       5.9828018020E+01               0
GRID*               1192               02.1117220564E+00-9.248875929E-01+
*       3.4338738970E+01               0
GRID*               1193               01.4004074279E+00-2.013889048E+00+
*       3.9277848140E+01               0
GRID*               1194               01.5946129009E+00-1.774238101E+00+
*       4.2481289740E+01               0
GRID*               1195               0-2.178674429E+003.3338367655E+00+
*       3.8277977856E+01               0
GRID*               1196               0-3.279428031E+002.0238149275E+00+
*       4.0129827962E+01               0
GRID*               1197               0-2.864269815E+004.4833250714E-01+
*       3.9277846409E+01               0
GRID*               1198               0-1.446104445E+007.5980659431E-01+
*       3.8666937122E+01               0
GRID*               1199               0-2.178674428E+003.3338367659E+00+
*       4.0129829708E+01               0
GRID*               1200               0-1.569310739E+001.9980052929E+00+
*       4.2481289754E+01               0
GRID*               1201               01.1494277702E-012.2934541160E+00+
*       4.2481289408E+01               0
GRID*               1202               0-4.944209121E-013.6292855891E+00+
*       4.0129829361E+01               0
GRID*               1203               0-7.926269599E-022.0538031687E+00+
*       3.9277847808E+01               0
GRID*               1204               0-1.251898972E+009.9945754159E-01+
*       4.1870378722E+01               0
GRID*               1205               0-2.115977072E+00-3.387307866E+00+
*       4.3470812321E+01               0
GRID*               1206               0-1.569310735E+00-2.334379226E+00+
*       4.4333141607E+01               0
GRID*               1207               0-4.944010460E-013.6292822790E+00+
*       3.8277977309E+01               0
GRID*               1208               0-7.924282992E-022.0537998587E+00+
*       3.7425995755E+01               0
GRID*               1209               0-3.216733878E+00-2.077278426E+00+
*       4.1618962085E+01               0
GRID*               1210               01.2715190121E+002.2715971249E+00+
*       2.0441001735E+01               0
GRID*               1211               0-9.346165163E-011.4372616790E+00+
*       1.4916666342E+01               0
GRID*               1212               07.4963257767E-011.7327112420E+00+
*       1.4916665985E+01               0
GRID*               1213               0-2.081550078E-013.1271872210E+00+
*       1.6737297655E+01               0
GRID*               1214               0-1.892404102E+002.8317376580E+00+
*       1.6737298012E+01               0
GRID*               1215               01.8381269700E+001.6612327745E+00+
*       8.9791468018E+01               0
GRID*               1216               03.5840561929E-012.5168329311E+00+
*       8.9791468222E+01               0
GRID*               1217               01.9128810801E+001.7035007367E+00+
*       8.7965897393E+01               0
GRID*               1218               0-8.075659061E-021.5263518279E-01+
*       8.8868476527E+01               0
GRID*               1219               04.3315972945E-012.5591008933E+00+
*       8.7965897597E+01               0
GRID*               1220               01.9537224274E+001.6976055268E+00+
*       8.4269166647E+01               0
GRID*               1221               02.5378402490E+009.1556205263E-02+
*       8.4269166648E+01               0
GRID*               1222               02.4969987598E+009.7451572514E-02+
*       8.6114045543E+01               0
GRID*               1223               01.9128809382E+001.7035008941E+00+
*       8.6114045542E+01               0
GRID*               1224               03.4839008744E-021.8900777778E-01+
*       8.5198027007E+01               0
GRID*               1225               0-2.310998438E+00-7.645144586E-01+
*       8.4269167063E+01               0
GRID*               1226               0-2.311037968E+009.4753295125E-01+
*       8.4269167593E+01               0
GRID*               1227               0-2.351879457E+009.5342831850E-01+
*       8.6114046488E+01               0
GRID*               1228               0-2.351839927E+00-7.586190913E-01+
*       8.6114045958E+01               0
GRID*               1229               0-1.299879092E+00-3.157268509E+00+
*       5.3132842332E+01               0
GRID*               1230               03.8430676615E-01-3.452728604E+00+
*       5.3132842011E+01               0
GRID*               1231               0-2.082033192E+00-2.105800380E+00+
*       5.0681170119E+01               0
GRID*               1232               0-8.858260916E-01-9.306843701E-01+
*       5.1962160598E+01               0
GRID*               1233               03.8434172730E-01-3.452722779E+00+
*       5.4984694207E+01               0
GRID*               1234               01.8640435761E+00-2.597128460E+00+
*       5.4984694161E+01               0
GRID*               1235               0-1.210202853E+00-2.074636051E+00+
*       8.4269166649E+01               0
GRID*               1236               0-1.251044342E+00-2.068740684E+00+
*       8.6114045544E+01               0
GRID*               1237               0-1.299879092E+00-3.157268508E+00+
*       5.4984694184E+01               0
GRID*               1238               0-2.400628748E+00-1.847256050E+00+
*       5.4984696051E+01               0
GRID*               1239               0-2.123192614E+00-1.572059714E+00+
*       5.6511142571E+01               0
GRID*               1240               0-1.022442959E+00-2.882072172E+00+
*       5.6511140704E+01               0
GRID*               1241               01.7376414207E-01-1.706956163E+00+
*       5.5940279331E+01               0
GRID*               1242               01.9537225152E+00-1.514493019E+00+
*       8.4269166647E+01               0
GRID*               1243               01.9128810261E+00-1.508597652E+00+
*       8.6114045541E+01               0
GRID*               1244               01.8640437858E+00-2.597128228E+00+
*       5.3132842311E+01               0
GRID*               1245               06.6177786101E-01-3.177526443E+00+
*       5.6511140727E+01               0
GRID*               1246               02.1414797098E+00-2.321932124E+00+
*       5.6511140681E+01               0
GRID*               1247               01.4117565110E+002.3994703232E+00+
*       5.4951365802E+01               0
GRID*               1248               01.9958762351E+007.9341889263E-01+
*       5.4951365785E+01               0
GRID*               1249               02.7256001379E+00-7.158799132E-01+
*       5.6511140703E+01               0
GRID*               1250               02.1414804137E+008.9017151734E-01+
*       5.6511140720E+01               0
GRID*               1251               0-2.785236270E-017.7538979383E-02+
*       5.5906950933E+01               0
GRID*               1252               04.7404624098E-01-2.370085614E+00+
*       8.4269167006E+01               0
GRID*               1253               04.3320475179E-01-2.364190247E+00+
*       8.6114045901E+01               0
GRID*               1254               0-2.082033191E+00-2.105800381E+00+
*       4.8829318267E+01               0
GRID*               1255               01.4410835730E+002.5851611485E+00+
*       4.7889744511E+01               0
GRID*               1256               01.4410604283E+002.5851650048E+00+
*       4.9741596594E+01               0
GRID*               1257               0-3.978704785E-012.5220480901E+00+
*       5.0681170671E+01               0
GRID*               1258               01.7095071525E-011.8390067319E-01+
*       4.8570914309E+01               0
GRID*               1259               02.4222446496E+005.5183610277E-02+
*       8.9791468020E+01               0
GRID*               1260               01.8381270761E+001.6612326568E+00+
*       9.1643319869E+01               0
GRID*               1261               0-1.110164901E+002.0977382301E+00+
*       9.5367516152E+01               0
GRID*               1262               0-2.210981883E+007.8756581479E-01+
*       9.3515664662E+01               0
GRID*               1263               0-1.110164896E+002.0977382325E+00+
*       9.3515664300E+01               0
GRID*               1264               01.4117560168E+00-8.126330858E-01+
*       5.3099513912E+01               0
GRID*               1265               05.0081704620E-019.1692768660E-01+
*       5.0989258124E+01               0
GRID*               1266               02.9208205927E+00-1.482543184E+00+
*       4.9741596022E+01               0
GRID*               1267               0-1.338113861E+008.5381077185E-01+
*       5.1928832200E+01               0
GRID*               1268               0-1.266886745E+002.0932617145E+00+
*       6.5798625643E+01               0
GRID*               1269               0-1.266886746E+002.0932617140E+00+
*       6.3946773792E+01               0
GRID*               1270               04.1725539460E-012.3887290905E+00+
*       6.3946774570E+01               0
GRID*               1271               03.0654343136E-012.6077385300E+00+
*       6.2284708052E+01               0
GRID*               1272               0-1.377598710E+002.3122711534E+00+
*       6.2284707274E+01               0
GRID*               1273               03.0654394386E-012.6077384446E+00+
*       6.0432856186E+01               0
GRID*               1274               01.9226222194E+001.6039860103E+00+
*       9.8148148146E+01               0
GRID*               1275               04.4291321525E-012.4595842724E+00+
*       9.8148148196E+01               0
GRID*               1276               02.0537606860E+001.5375949422E+00+
*       9.5367516150E+01               0
GRID*               1277               01.4461791932E-01-7.051699304E-02+
*       9.7219368004E+01               0
GRID*               1278               05.7405168194E-012.3931932043E+00+
*       9.5367516199E+01               0
GRID*               1279               03.0667466698E-01-2.315558880E+00+
*       6.2284707821E+01               0
GRID*               1280               0-1.377598716E+00-2.020113366E+00+
*       6.2284707274E+01               0
GRID*               1281               0-1.266886752E+00-2.239122806E+00+
*       6.3946773792E+01               0
GRID*               1282               04.1738663021E-01-2.534568319E+00+
*       6.3946774339E+01               0
GRID*               1283               0-1.483992716E-017.3148344674E-02+
*       6.3268518103E+01               0
GRID*               1284               02.9208208306E+001.7295605086E+00+
*       4.9741596062E+01               0
GRID*               1285               03.5049408111E+001.2350879397E-01+
*       4.9741596043E+01               0
GRID*               1286               01.9958762351E+007.9341889263E-01+
*       5.3099513933E+01               0
GRID*               1287               01.4117562547E+002.3994706073E+00+
*       5.3099513952E+01               0
GRID*               1288               0-2.478357465E+00-7.100792989E-01+
*       6.2284708860E+01               0
GRID*               1289               0-2.367645502E+00-9.290887384E-01+
*       6.3946775378E+01               0
GRID*               1290               0-2.478367146E+001.0022140821E+00+
*       6.2284706035E+01               0
GRID*               1291               0-2.367655183E+007.8320464266E-01+
*       6.3946772553E+01               0
GRID*               1292               02.3918456354E+00-2.775912694E-02+
*       6.7628171832E+01               0
GRID*               1293               01.8077267133E+001.5782914146E+00+
*       6.7628171842E+01               0
GRID*               1294               02.4811563458E+00-7.293054738E-02+
*       6.5798625644E+01               0
GRID*               1295               01.8970374237E+001.5331199942E+00+
*       6.5798625653E+01               0
GRID*               1296               01.9852861770E+001.6781102281E+00+
*       7.1360952683E+01               0
GRID*               1297               05.0551495835E-012.5337177657E+00+
*       7.1360953364E+01               0
GRID*               1298               01.8077269707E+001.5782911293E+00+
*       6.9480023691E+01               0
GRID*               1299               0-3.874952282E-024.4300844975E-02+
*       7.0470605989E+01               0
GRID*               1300               03.2795575206E-012.4338986669E+00+
*       6.9480024373E+01               0
GRID*               1301               02.9656183266E-013.2262611696E-01+
*       5.7758155153E+01               0
GRID*               1302               0-5.559597607E-01-1.976573567E-01+
*       5.4380504413E+01               0
GRID*               1303               02.4481640042E+00-9.910762494E-01+
*       5.4984694183E+01               0
GRID*               1304               0-2.400626462E+00-1.847261480E+00+
*       5.3132844267E+01               0
GRID*               1305               0-2.852923664E+001.6495817127E+00+
*       5.6803216020E+01               0
GRID*               1306               0-2.852920465E+00-6.275152752E-02+
*       5.6803219383E+01               0
GRID*               1307               0-2.852917015E+001.6495975098E+00+
*       5.4951363950E+01               0
GRID*               1308               0-2.852916517E+00-6.276090800E-02+
*       5.4951367652E+01               0
GRID*               1309               0-1.241303376E+00-2.168255218E+00+
*       9.8148148149E+01               0
GRID*               1310               04.4291754677E-01-2.463709476E+00+
*       9.8148148202E+01               0
GRID*               1311               02.3704443826E+001.4607889205E-01+
*       6.0432855422E+01               0
GRID*               1312               01.7863249248E+001.7521300273E+00+
*       6.0432855437E+01               0
GRID*               1313               02.7256001379E+00-7.158799132E-01+
*       5.8362992555E+01               0
GRID*               1314               09.6044520476E-02-5.698010212E-01+
*       5.9536588718E+01               0
GRID*               1315               02.1414806801E+008.9017122205E-01+
*       5.8362992570E+01               0
GRID*               1316               0-2.478352318E+00-7.100915281E-01+
*       6.0432857168E+01               0
GRID*               1317               0-2.123199761E+001.4028290679E-01+
*       5.8362990939E+01               0
GRID*               1318               0-2.123196562E+00-1.572050333E+00+
*       5.8362994301E+01               0
GRID*               1319               02.4811563458E+00-7.293054738E-02+
*       6.3946773792E+01               0
GRID*               1320               02.5067397263E+00-2.062962458E-03+
*       9.8148148148E+01               0
GRID*               1321               01.8970371575E+001.5331202893E+00+
*       6.3946773804E+01               0
GRID*               1322               0-1.696123428E+002.4458929518E+00+
*       2.5218031331E+01               0
GRID*               1323               0-2.082309541E-01-1.796109071E+00+
*       2.0441001208E+01               0
GRID*               1324               01.2715208035E+00-9.405043356E-01+
*       2.0441001714E+01               0
GRID*               1325               0-2.082199833E-01-1.796107244E+00+
*       1.8589149461E+01               0
GRID*               1326               0-2.993194256E+001.5216289683E+00+
*       1.8589149273E+01               0
GRID*               1327               02.0519196727E+002.7970069477E-01+
*       2.3366179480E+01               0
GRID*               1328               01.4677992282E+001.8857529239E+00+
*       2.5218031354E+01               0
GRID*               1329               01.4677996846E+001.8857524179E+00+
*       2.3366179499E+01               0
GRID*               1330               01.4678014760E+00-1.326349043E+00+
*       2.3366179477E+01               0
GRID*               1331               02.0519196727E+002.7970069477E-01+
*       2.5218031332E+01               0
GRID*               1332               01.8556390002E+006.6554540180E-01+
*       2.0441001716E+01               0
GRID*               1333               02.5694048417E+007.2059971913E-02+
*       7.3212804527E+01               0
GRID*               1334               01.9852843972E+00-1.533992257E+00+
*       7.3212804505E+01               0
GRID*               1335               02.6206576420E+004.1781325119E-03+
*       7.5035750044E+01               0
GRID*               1336               01.9006248375E-017.6238104425E-02+
*       7.4174480498E+01               0
GRID*               1337               02.0365371975E+00-1.601874097E+00+
*       7.5035750022E+01               0
GRID*               1338               0-1.892404101E+002.8317376583E+00+
*       1.8589149864E+01               0
GRID*               1339               01.4678012514E+00-1.326349292E+00+
*       2.5218031327E+01               0
GRID*               1340               05.0564220315E-01-2.389576621E+00+
*       7.3212805172E+01               0
GRID*               1341               05.5689500344E-01-2.457458460E+00+
*       7.5035750689E+01               0
GRID*               1342               0-2.279471234E+009.2804180377E-01+
*       7.3212805378E+01               0
GRID*               1343               0-1.178638248E+002.2382522346E+00+
*       7.3212804527E+01               0
GRID*               1344               0-1.127385448E+002.1703703952E+00+
*       7.5035750044E+01               0
GRID*               1345               0-2.228218434E+008.6015996437E-01+
*       7.5035750895E+01               0
GRID*               1346               0-2.311043846E+009.4751898621E-01+
*       8.2417315922E+01               0
GRID*               1347               0-2.310993008E+00-7.645273613E-01+
*       8.2417315388E+01               0
GRID*               1348               0-2.440250747E+008.9051051955E-01+
*       8.0558808092E+01               0
GRID*               1349               0-2.440199909E+00-8.215358279E-01+
*       8.0558807557E+01               0
GRID*               1350               0-1.178638259E+00-2.094132285E+00+
*       7.3212804528E+01               0
GRID*               1351               0-2.279415928E+00-7.840532622E-01+
*       7.3212805518E+01               0
GRID*               1352               0-2.228163128E+00-8.519351016E-01+
*       7.5035751035E+01               0
GRID*               1353               0-1.127385458E+00-2.162014125E+00+
*       7.5035750045E+01               0
GRID*               1354               03.5842925750E-01-2.406461772E+00+
*       9.1643320010E+01               0
GRID*               1355               0-1.325798453E+00-2.111008646E+00+
*       9.1643319873E+01               0
GRID*               1356               0-1.110164910E+00-2.234646287E+00+
*       9.3515664301E+01               0
GRID*               1357               05.7406280089E-01-2.530099413E+00+
*       9.3515664438E+01               0
GRID*               1358               06.0122842617E-02-1.327042031E-02+
*       9.2566391580E+01               0
GRID*               1359               0-2.426615427E+009.1120345565E-01+
*       9.1643320234E+01               0
GRID*               1360               0-1.325798439E+002.2213758734E+00+
*       9.1643319872E+01               0
GRID*               1361               0-2.864273014E+00-1.264000733E+00+
*       3.9277849772E+01               0
GRID*               1362               03.5841314891E-012.5168316765E+00+
*       9.1643319988E+01               0
GRID*               1363               05.7404669230E-012.3931940356E+00+
*       9.3515664416E+01               0
GRID*               1364               02.4222446496E+005.5183610277E-02+
*       9.1643319872E+01               0
GRID*               1365               01.8381281788E+00-1.550864214E+00+
*       9.1643319878E+01               0
GRID*               1366               02.6378781930E+00-6.845403058E-02+
*       9.3515664300E+01               0
GRID*               1367               02.0537617222E+00-1.674501855E+00+
*       9.3515664306E+01               0
GRID*               1368               05.5678768771E-012.4658326058E+00+
*       7.6887602404E+01               0
GRID*               1369               05.5677710056E-012.4658343698E+00+
*       7.5035750650E+01               0
GRID*               1370               02.0365392207E+001.6102281189E+00+
*       7.5035750049E+01               0
GRID*               1371               02.0537606195E+001.5375950159E+00+
*       9.3515664297E+01               0
GRID*               1372               01.8245151514E+001.6405974760E+00+
*       7.8706955117E+01               0
GRID*               1373               02.4086333481E+003.4547738606E-02+
*       7.8706955114E+01               0
GRID*               1374               0-2.426602146E+00-8.008677890E-01+
*       9.1643320010E+01               0
GRID*               1375               0-2.210968603E+00-9.245054298E-01+
*       9.3515664438E+01               0
GRID*               1376               04.9901704764E-01-2.682316140E+00+
*       6.2357131387E+00               0
GRID*               1377               0-1.185194541E+00-2.386860337E+00+
*       6.2357132549E+00               0
GRID*               1378               0-9.101236589E-01-2.538181029E+00+
*       8.1551891432E+00               0
GRID*               1379               07.7408792927E-01-2.833636832E+00+
*       8.1551890270E+00               0
GRID*               1380               04.0076797832E-01-5.926568392E-01+
*       6.9834949906E+00               0
GRID*               1381               02.8134265857E+00-7.289305772E-01+
*       1.4916666342E+01               0
GRID*               1382               02.2293087640E+00-2.334979899E+00+
*       1.4916666343E+01               0
GRID*               1383               02.5628485483E+00-2.206680737E-01+
*       6.2357132548E+00               0
GRID*               1384               01.9787309749E+00-1.826717120E+00+
*       6.2357132580E+00               0
GRID*               1385               02.8379194300E+00-3.719887655E-01+
*       8.1551891432E+00               0
GRID*               1386               02.2538018565E+00-1.978037812E+00+
*       8.1551891463E+00               0
GRID*               1387               01.9787320776E+001.3853797504E+00+
*       6.2357132491E+00               0
GRID*               1388               02.2538029592E+001.2340590587E+00+
*       8.1551891374E+00               0
GRID*               1389               0-1.185194554E+001.9455241822E+00+
*       6.2357132542E+00               0
GRID*               1390               04.9903315623E-012.2409773085E+00+
*       6.2357131173E+00               0
GRID*               1391               07.7410403785E-012.0896566167E+00+
*       8.1551890056E+00               0
GRID*               1392               0-9.101236726E-011.7942034904E+00+
*       8.1551891425E+00               0
GRID*               1393               0-2.993245094E+00-1.904173791E-01+
*       1.8589148738E+01               0
GRID*               1394               0-2.993239217E+00-1.904313442E-01+
*       1.6737297068E+01               0
GRID*               1395               0-2.993199687E+001.5216160656E+00+
*       1.6737297598E+01               0
GRID*               1396               0-9.101236579E-01-2.538181029E+00+
*       1.0007040995E+01               0
GRID*               1397               07.7408039965E-01-2.833638086E+00+
*       1.0007040793E+01               0
GRID*               1398               0-2.035451631E+00-1.584907323E+00+
*       1.4916665398E+01               0
GRID*               1399               0-9.346165022E-01-2.895122841E+00+
*       1.4916666342E+01               0
GRID*               1400               0-2.035442778E+00-1.584928357E+00+
*       1.3064813827E+01               0
GRID*               1401               0-2.035412102E+001.2714008661E-01+
*       1.4916665928E+01               0
GRID*               1402               0-2.035416686E+001.2712919479E-01+
*       1.3064814229E+01               0
GRID*               1403               0-2.286011528E+00-1.076687919E+00+
*       6.2357128927E+00               0
GRID*               1404               0-2.010940647E+00-1.228008611E+00+
*       8.1551887810E+00               0
GRID*               1405               0-2.010949934E+00-1.227986545E+00+
*       1.0007040332E+01               0
GRID*               1406               0-2.010927366E+004.8406263376E-01+
*       8.1551890053E+00               0
GRID*               1407               0-2.285998247E+006.3538332552E-01+
*       6.2357131169E+00               0
GRID*               1408               02.1414795406E+00-2.321932312E+00+
*       5.8362992531E+01               0
GRID*               1409               0-1.752166860E+002.9596111526E+00+
*       5.3099513933E+01               0
GRID*               1410               0-2.358916350E+008.1696449006E-01+
*       3.0638855942E+01               0
GRID*               1411               0-1.258145241E+002.1270279240E+00+
*       3.0638857140E+01               0
GRID*               1412               0-1.696123417E+00-1.886491568E+00+
*       2.5218031332E+01               0
GRID*               1413               0-1.196086875E-02-2.181955543E+00+
*       2.5218030726E+01               0
GRID*               1414               0-1.022442960E+00-2.882072172E+00+
*       5.8362992556E+01               0
GRID*               1415               06.6181055622E-01-3.177520995E+00+
*       5.8362992902E+01               0
GRID*               1416               0-1.242928870E+001.9733340274E+00+
*       2.8810128806E+01               0
GRID*               1417               0-1.242928870E+001.9733340271E+00+
*       2.6958276954E+01               0
GRID*               1418               04.4135159143E-012.2687783626E+00+
*       2.6958276310E+01               0
GRID*               1419               0-1.185194545E+00-2.386860334E+00+
*       4.3838614030E+00               0
GRID*               1420               0-1.356197464E+00-2.193951385E+00+
*       6.7628171832E+01               0
GRID*               1421               0-1.266886753E+00-2.239122805E+00+
*       6.5798625644E+01               0
GRID*               1422               0-2.440193856E+00-8.215502070E-01+
*       7.8706955900E+01               0
GRID*               1423               0-2.228169562E+00-8.519198131E-01+
*       7.6887602682E+01               0
GRID*               1424               03.2808556973E-01-2.489395291E+00+
*       6.7628172482E+01               0
GRID*               1425               04.1739628010E-01-2.534566711E+00+
*       6.5798626294E+01               0
GRID*               1426               03.5049408111E+001.2350879397E-01+
*       4.7889744191E+01               0
GRID*               1427               02.9208205927E+001.7295607724E+00+
*       4.7889744212E+01               0
GRID*               1428               02.6206576420E+004.1781325119E-03+
*       7.6887601896E+01               0
GRID*               1429               02.0365394453E+001.6102278699E+00+
*       7.6887601899E+01               0
GRID*               1430               0-1.258145232E+00-2.205356596E+00+
*       3.0638857140E+01               0
GRID*               1431               0-2.358958445E+00-8.951931434E-01+
*       3.0638856932E+01               0
GRID*               1432               0-1.195028159E-02-2.181953778E+00+
*       2.3366178972E+01               0
GRID*               1433               04.4135585813E-012.2687776517E+00+
*       2.8810128130E+01               0
GRID*               1434               04.2613948677E-012.4224715483E+00+
*       3.0638856464E+01               0
GRID*               1435               0-4.987911332E-03-2.320225633E-01+
*       2.9819356317E+01               0
GRID*               1436               0-2.796956403E+00-5.762811371E-01+
*       2.5218030481E+01               0
GRID*               1437               0-2.342109328E+00-8.581089950E-01+
*       9.8148148198E+01               0
GRID*               1438               0-1.185194554E+001.9455241821E+00+
*       4.3838614025E+00               0
GRID*               1439               0-1.339409753E+00-2.131644518E+00+
*       8.0558806967E+01               0
GRID*               1440               04.7399182234E-012.5532070916E+00+
*       8.4269166948E+01               0
GRID*               1441               0-1.210202839E+002.2577484689E+00+
*       8.4269166648E+01               0
GRID*               1442               04.4123368855E-01-2.654514467E+00+
*       2.6958276350E+01               0
GRID*               1443               01.9209958087E+00-1.798908216E+00+
*       2.6958276950E+01               0
GRID*               1444               0-4.429660973E-018.6842464803E-02+
*       2.6250382361E+01               0
GRID*               1445               0-1.892404088E+00-1.500646862E+00+
*       1.8589149864E+01               0
GRID*               1446               0-1.325798453E+00-2.111008646E+00+
*       8.9791468021E+01               0
GRID*               1447               04.9902203727E-01-2.682315309E+00+
*       4.3838613556E+00               0
GRID*               1448               0-1.210202853E+00-2.074636051E+00+
*       8.2417314797E+01               0
GRID*               1449               02.1117202684E+002.2872154723E+00+
*       3.6190590856E+01               0
GRID*               1450               06.3207126297E-013.1428007203E+00+
*       3.6190590284E+01               0
GRID*               1451               01.9057771865E+001.5668881481E+00+
*       3.0638857165E+01               0
GRID*               1452               01.9852841696E+00-1.533992509E+00+
*       7.1360952651E+01               0
GRID*               1453               05.0564646985E-01-2.389575910E+00+
*       7.1360953352E+01               0
GRID*               1454               01.9226226289E+00-1.608111481E+00+
*       9.8148148149E+01               0
GRID*               1455               03.5843907470E-01-2.406460136E+00+
*       8.9791468263E+01               0
GRID*               1456               01.8381282344E+00-1.550864152E+00+
*       8.9791468028E+01               0
GRID*               1457               0-1.110164910E+00-2.234646286E+00+
*       9.5367516153E+01               0
GRID*               1458               0-1.251044343E+00-2.068740684E+00+
*       8.7965897396E+01               0
GRID*               1459               04.3319318486E-01-2.364192174E+00+
*       8.7965897637E+01               0
GRID*               1460               0-2.342113063E+008.5397419696E-01+
*       9.8148148265E+01               0
GRID*               1461               0-1.251044328E+002.2636438361E+00+
*       8.7965897395E+01               0
GRID*               1462               04.3315033314E-012.5591024589E+00+
*       8.6114045843E+01               0
GRID*               1463               0-2.426624714E+009.1118138966E-01+
*       8.9791468684E+01               0
GRID*               1464               0-1.325798438E+002.2213758739E+00+
*       8.9791468020E+01               0
GRID*               1465               0-2.210970861E+00-9.245000631E-01+
*       9.5367516202E+01               0
GRID*               1466               03.2794859894E-012.4338998587E+00+
*       6.7628172581E+01               0
GRID*               1467               04.1725930931E-012.3887284383E+00+
*       6.5798626393E+01               0
GRID*               1468               01.8077249633E+00-1.633811608E+00+
*       6.9480023659E+01               0
GRID*               1469               02.3918456354E+00-2.775912694E-02+
*       6.9480023684E+01               0
GRID*               1470               0-2.351844512E+00-7.586081995E-01+
*       8.7965897656E+01               0
GRID*               1471               0-1.356197456E+002.1384331349E+00+
*       6.7628171832E+01               0
GRID*               1472               0-2.081430336E-013.1271852259E+00+
*       1.8589149393E+01               0
GRID*               1473               01.8245133600E+00-1.571503985E+00+
*       7.8706955095E+01               0
GRID*               1474               02.8134265857E+00-7.289305772E-01+
*       1.3064814490E+01               0
GRID*               1475               02.2293089060E+00-2.334979741E+00+
*       1.3064814493E+01               0
GRID*               1476               0-1.241303367E+002.1641292982E+00+
*       9.8148148148E+01               0
GRID*               1477               0-1.178638249E+002.2382522342E+00+
*       7.1360952675E+01               0
GRID*               1478               0-6.800414760E-023.2550751035E+00+
*       5.3099514485E+01               0
GRID*               1479               02.5051142300E+00-1.928582300E-01+
*       2.6958276955E+01               0
GRID*               1480               01.9209935579E+001.4131942514E+00+
*       2.8810128831E+01               0
GRID*               1481               01.9209937855E+001.4131939992E+00+
*       2.6958276978E+01               0
GRID*               1482               01.8077248901E+00-1.633811689E+00+
*       6.7628171807E+01               0
GRID*               1483               01.8970356005E+00-1.678983110E+00+
*       6.5798625618E+01               0
GRID*               1484               0-9.346165166E-011.4372616788E+00+
*       1.3064814490E+01               0
GRID*               1485               05.0552430027E-012.5337162092E+00+
*       7.3212805133E+01               0
GRID*               1486               0-1.356197464E+00-2.193951384E+00+
*       6.9480023684E+01               0
GRID*               1487               03.2808726357E-01-2.489395009E+00+
*       6.9480024361E+01               0
GRID*               1488               01.7863251942E+001.7521297287E+00+
*       6.2284707286E+01               0
GRID*               1489               0-1.356197455E+002.1384331354E+00+
*       6.9480023684E+01               0
GRID*               1490               0-2.457010668E+008.2826968314E-01+
*       6.9480023892E+01               0
GRID*               1491               0-2.426598622E+00-8.008761617E-01+
*       8.9791468282E+01               0
GRID*               1492               0-2.852914231E+00-6.276633832E-02+
*       5.3099515868E+01               0
GRID*               1493               0-2.456968573E+00-8.838879504E-01+
*       6.9480024882E+01               0
GRID*               1494               0-2.351870604E+009.5344935190E-01+
*       8.7965898058E+01               0
GRID*               1495               02.4969987598E+009.7451572514E-02+
*       8.7965897395E+01               0
GRID*               1496               01.9128823446E+00-1.508596190E+00+
*       8.7965897403E+01               0
GRID*               1497               0-2.286004241E+00-1.076705233E+00+
*       4.3838612862E+00               0
GRID*               1498               0-2.286000506E+006.3537795880E-01+
*       4.3838613536E+00               0
GRID*               1499               01.7863236724E+00-1.459973632E+00+
*       6.2284707249E+01               0
GRID*               1500               03.0665480091E-01-2.315562190E+00+
*       6.0432855769E+01               0
GRID*               1501               02.5051142300E+00-1.928582300E-01+
*       2.8810128807E+01               0
GRID*               1502               0-2.343699978E+006.6327059345E-01+
*       2.8810127609E+01               0
GRID*               1503               0-2.343706540E+006.6325500413E-01+
*       2.6958275964E+01               0
GRID*               1504               02.9208208306E+00-1.482542921E+00+
*       4.7889744172E+01               0
GRID*               1505               01.8970356356E+00-1.678983071E+00+
*       6.3946773767E+01               0
GRID*               1506               0-1.569310736E+00-2.334379226E+00+
*       4.6184993459E+01               0
GRID*               1507               0-2.670058108E+006.8799826522E-01+
*       4.6184991523E+01               0
GRID*               1508               0-2.279409366E+00-7.840688515E-01+
*       7.1360953874E+01               0
GRID*               1509               0-1.178638258E+00-2.094132285E+00+
*       7.1360952676E+01               0
GRID*               1510               02.8815312290E+001.2550270670E+00+
*       1.8518518512E+00               0
GRID*               1511               01.7391901815E+002.6168740858E+00+
*       1.8518518512E+00               0
GRID*               1512               02.5948509941E-013.4724720800E+00+
*       1.8518517983E+00               0
GRID*               1513               01.9787314509E+001.3853804451E+00+
*       4.3838614023E+00               0
GRID*               1514               0-1.138441727E-017.9015749320E-01+
*       2.5320095511E+00               0
GRID*               1515               01.0284968748E+00-5.716895256E-01+
*       2.5320095511E+00               0
GRID*               1516               03.4476339377E-012.4962022119E+00+
*       7.8706955622E+01               0
GRID*               1517               04.2600797527E-01-2.500822127E+00+
*       3.0638856452E+01               0
GRID*               1518               02.5628485483E+00-2.206680737E-01+
*       4.3838614030E+00               0
GRID*               1519               0-1.242928860E+00-2.359050493E+00+
*       2.6958276955E+01               0
GRID*               1520               0-9.346165022E-01-2.895122841E+00+
*       1.3064814490E+01               0
GRID*               1521               07.4958755534E-01-3.190579898E+00+
*       1.3064814288E+01               0
GRID*               1522               06.5134601563E-01-1.100919343E+00+
*       1.1960744374E+01               0
GRID*               1523               02.8379194300E+00-3.719887655E-01+
*       1.0007040995E+01               0
GRID*               1524               02.2538017503E+00-1.978037930E+00+
*       1.0007040998E+01               0
GRID*               1525               0-9.101236723E-011.7942034906E+00+
*       1.0007040994E+01               0
GRID*               1526               0-2.010923842E+004.8407100655E-01+
*       1.0007040734E+01               0
GRID*               1527               07.4962101075E-011.7327131693E+00+
*       1.3064814248E+01               0
GRID*               1528               0-2.358931914E+00-8.952561763E-01+
*       3.2490709640E+01               0
GRID*               1529               0-3.133974144E+001.9612338636E-01+
*       1.8518518024E+00               0
GRID*               1530               0-3.133977878E+00-1.515959806E+00+
*       1.8518517351E+00               0
GRID*               1531               07.4957815903E-01-3.190581464E+00+
*       1.4916666043E+01               0
GRID*               1532               0-2.343742073E+00-1.048887040E+00+
*       2.8810128598E+01               0
GRID*               1533               0-2.343761846E+00-1.048840062E+00+
*       2.6958276105E+01               0
GRID*               1534               0-2.279451462E+009.2808878199E-01+
*       7.1360952884E+01               0
GRID*               1535               0-1.377598715E+00-2.020113367E+00+
*       6.0432855422E+01               0
GRID*               1536               04.4122434663E-01-2.654516024E+00+
*       2.8810128118E+01               0
GRID*               1537               0-2.796901097E+001.1358139289E+00+
*       2.5218030341E+01               0
GRID*               1538               0-1.251044328E+002.2636438361E+00+
*       8.6114045543E+01               0
GRID*               1539               0-2.525541775E+001.8668715994E+00+
*       1.8518518024E+00               0
GRID*               1540               0-1.424735824E+003.1770178228E+00+
*       1.8518518513E+00               0
GRID*               1541               05.7405601346E-01-2.530100544E+00+
*       9.5367516206E+01               0
GRID*               1542               02.0537610955E+00-1.674502549E+00+
*       9.5367516153E+01               0
GRID*               1543               07.7411385506E-012.0896549810E+00+
*       1.0007040753E+01               0
GRID*               1544               04.9902636879E-012.2409784394E+00+
*       4.3838613494E+00               0
GRID*               1545               0-3.489516004E-01-3.121569881E+00+
*       1.8518518045E+00               0
GRID*               1546               0-2.033168183E+00-2.826114907E+00+
*       1.8518518519E+00               0
GRID*               1547               0-7.222765410E-01-8.805907199E-01+
*       2.5320095511E+00               0
GRID*               1548               0-2.852914167E+001.6496042774E+00+
*       5.3099512001E+01               0
GRID*               1549               0-1.184296587E-022.7413372873E+00+
*       2.5218030687E+01               0
GRID*               1550               07.4956760213E-01-3.190583223E+00+
*       1.6768517790E+01               0
GRID*               1551               02.2538030148E+001.2340589971E+00+
*       1.0007040987E+01               0
GRID*               1552               0-9.346165026E-01-2.895122841E+00+
*       1.6768518194E+01               0
GRID*               1553               0-2.210974596E+007.8758312883E-01+
*       9.5367516269E+01               0
GRID*               1554               01.7863237852E+00-1.459973506E+00+
*       6.0432855398E+01               0
GRID*               1555               01.9852864204E+001.6781099583E+00+
*       7.3212804532E+01               0
GRID*               1556               02.6378781930E+00-6.845403058E-02+
*       9.5367516152E+01               0
GRID*               1557               0-2.670058043E+00-1.024372350E+00+
*       4.6184995391E+01               0
GRID*               1558               0-1.242928860E+00-2.359050492E+00+
*       2.8810128807E+01               0
GRID*               1559               01.9787310414E+00-1.826717047E+00+
*       4.3838614056E+00               0
GRID*               1560               02.2293101705E+008.7711718530E-01+
*       1.3064814483E+01               0
GRID*               1561               01.4004061755E+001.1982146106E+00+
*       3.7425996328E+01               0
GRID*               1562               02.3704443826E+001.4607889205E-01+
*       6.2284707274E+01               0
GRID*               1563               01.9057791939E+00-1.645214590E+00+
*       3.0638857133E+01               0
GRID*               1564               03.4656483264E+00-3.510214518E-01+
*       1.8518518519E+00               0
GRID*               1565               02.8815308195E+00-1.957070425E+00+
*       1.8518518545E+00               0
GRID*               1566               02.4898978587E+00-3.916433335E-02+
*       3.0638857140E+01               0
GRID*               1567               01.4018218154E+00-2.812668687E+00+
*       1.8518518045E+00               0
GRID*               1568               02.5694048417E+007.2059971913E-02+
*       7.1360952676E+01               0
GRID*               1569               01.9209955653E+00-1.798908486E+00+
*       2.8810128800E+01               0
GRID*               1570               02.0365376539E+00-1.601873591E+00+
*       7.6887601877E+01               0
$*
$* ELEMENT CARDS
$*
$*  Mesh Collector: Solid(1)
$*  Mesh: 3d_mesh(1)
CTETRA         1       1     157    1019     158    1020    1048    1049+
+            470    1050    1051    1052
CTETRA         2       1     132    1021     133    1022    1053    1054+
+            401    1055    1056    1057
CTETRA         3       1     135    1021     136    1022    1058    1059+
+            409    1060    1056    1061
CTETRA         4       1     123    1023     124    1021    1062    1063+
+            376    1064    1065    1066
CTETRA         5       1     128    1023     129    1021    1067    1068+
+            390    1069    1065    1070
CTETRA         6       1      58     129    1023    1021     967    1068+
+           1071    1072    1070    1065
CTETRA         7       1     122    1023     123    1021    1073    1062+
+            373    1074    1065    1064
CTETRA         8       1      58    1023     122    1021    1071    1073+
+            865    1072    1065    1074
CTETRA         9       1     222     230     229    1024     669     668+
+            667    1075    1076    1077
CTETRA        10       1      46     225    1024    1025     943    1078+
+           1079    1080    1081    1082
CTETRA        11       1     221     222     229    1024     646     667+
+            666    1083    1075    1077
CTETRA        12       1     228     229    1026    1025     665    1084+
+           1085    1086    1087    1088
CTETRA        13       1     208     216    1027    1028     631    1089+
+           1090    1091    1092    1093
CTETRA        14       1     208    1029     209    1028    1094    1095+
+            611    1091    1096    1097
CTETRA        15       1     188     196     195    1030     575     574+
+            573    1098    1099    1100
CTETRA        16       1     215    1027     216    1024    1101    1089+
+            630    1102    1103    1104
CTETRA        17       1     223     231     230    1031     672     671+
+            670    1105    1106    1107
CTETRA        18       1     227     228    1026    1025     662    1085+
+           1108    1109    1086    1088
CTETRA        19       1     226     227    1026    1025     659    1108+
+           1110    1111    1109    1088
CTETRA        20       1     206    1027     213    1028    1112    1113+
+            623    1114    1093    1115
CTETRA        21       1     205     206     213    1028     602     623+
+            622    1116    1114    1115
CTETRA        22       1     202    1029     203    1028    1117    1118+
+            593    1119    1096    1120
CTETRA        23       1     189     190     197    1030     558     579+
+            578    1121    1122    1123
CTETRA        24       1      48     209    1029    1028     947    1095+
+           1124    1125    1097    1096
CTETRA        25       1     200    1029     208    1028    1126    1094+
+            609    1127    1096    1091
CTETRA        26       1     192     193     200    1030     567     588+
+            587    1128    1129    1130
CTETRA        27       1     190     198     197    1030     581     580+
+            579    1122    1131    1123
CTETRA        28       1      45     226    1026    1025     891    1110+
+           1132    1133    1111    1088
CTETRA        29       1     258     266    1032    1033     767    1134+
+           1135    1136    1137    1138
CTETRA        30       1     251     252    1033    1034     728    1139+
+           1140    1141    1142    1143
CTETRA        31       1     252     253    1033    1034     731    1144+
+           1139    1142    1145    1143
CTETRA        32       1     203     204    1028    1030     596    1146+
+           1120    1147    1148    1149
CTETRA        33       1     222     223     230    1024     649     670+
+            669    1075    1150    1076
CTETRA        34       1     223    1031     230    1024    1105    1107+
+            670    1150    1151    1076
CTETRA        35       1     230    1024    1031    1025    1076    1151+
+           1107    1152    1082    1153
CTETRA        36       1     231    1031     232    1026    1106    1154+
+            674    1155    1156    1157
CTETRA        37       1     224     232     231    1031     675     674+
+            673    1158    1154    1106
CTETRA        38       1     253     254    1033    1034     734    1159+
+           1144    1145    1160    1143
CTETRA        39       1     254     255    1033    1034     737    1161+
+           1159    1160    1162    1143
CTETRA        40       1      41    1032     265    1033    1163    1164+
+            933    1165    1138    1166
CTETRA        41       1      47     210    1024    1028     887    1167+
+           1168    1169    1170    1171
CTETRA        42       1     223     224    1031    1024     652    1158+
+           1105    1150    1172    1151
CTETRA        43       1     220    1024     221    1025    1173    1083+
+            643    1174    1082    1175
CTETRA        44       1     179    1035     180    1036    1176    1177+
+            530    1178    1179    1180
CTETRA        45       1     172     173     180    1035     511     532+
+            531    1181    1182    1177
CTETRA        46       1     170     171     178    1035     505     526+
+            525    1183    1184    1185
CTETRA        47       1     225    1031    1024    1025    1186    1151+
+           1078    1081    1153    1082
CTETRA        48       1     232    1031     233    1026    1154    1187+
+            677    1157    1156    1188
CTETRA        49       1     171     172     179    1035     508     529+
+            528    1184    1181    1176
CTETRA        50       1     172     173    1035    1037     511    1182+
+           1181    1189    1190    1191
CTETRA        51       1     233    1026    1031    1025    1188    1156+
+           1187    1192    1088    1153
CTETRA        52       1     216     217    1024    1028     633    1193+
+           1104    1092    1194    1171
CTETRA        53       1     213     220    1038    1024     642    1195+
+           1196    1197    1173    1198
CTETRA        54       1      47    1024     217    1028    1168    1193+
+            945    1169    1171    1194
CTETRA        55       1     212     213     220    1038     621     642+
+            641    1199    1196    1195
CTETRA        56       1     204     212     211    1028     619     618+
+            617    1146    1200    1201
CTETRA        57       1     211    1038    1024    1028    1202    1198+
+           1203    1201    1204    1171
CTETRA        58       1     206     207    1027    1028     605    1205+
+           1112    1114    1206    1093
CTETRA        59       1     213    1024    1038    1028    1197    1198+
+           1196    1115    1171    1204
CTETRA        60       1     209     217     216    1028     634     633+
+            632    1097    1194    1092
CTETRA        61       1     224     225    1031    1024     655    1186+
+           1158    1172    1078    1151
CTETRA        62       1     219    1038     220    1024    1207    1195+
+            640    1208    1198    1173
CTETRA        63       1     212     213    1038    1028     621    1196+
+           1199    1200    1115    1204
CTETRA        64       1     206     207     214    1027     605     626+
+            625    1112    1205    1209
CTETRA        65       1     250     251     258    1033     725     746+
+            745    1210    1140    1136
CTETRA        66       1     207     215     214    1027     628     627+
+            626    1205    1101    1209
CTETRA        67       1     215     216     223    1024     630     651+
+            650    1102    1104    1150
CTETRA        68       1     267     268    1032    1033     772    1211+
+           1212    1213    1214    1138
CTETRA        69       1     106    1039     107    1040    1215    1216+
+            329    1217    1218    1219
CTETRA        70       1      59     114    1023    1040     863    1220+
+           1221    1222    1223    1224
CTETRA        71       1     117     118    1023    1040     359    1225+
+           1226    1227    1228    1224
CTETRA        72       1     191    1041     192    1030    1229    1230+
+            564    1231    1232    1128
CTETRA        73       1     184     185     192    1041     545     566+
+            565    1233    1234    1230
CTETRA        74       1     118     119    1023    1040     362    1235+
+           1225    1228    1236    1224
CTETRA        75       1     182     183    1041    1042     539    1237+
+           1238    1239    1240    1241
CTETRA        76       1      59    1023     121    1040    1221    1242+
+            969    1222    1224    1243
CTETRA        77       1     192    1041     193    1030    1230    1244+
+            567    1128    1232    1129
CTETRA        78       1     184     185    1041    1042     545    1234+
+           1233    1245    1246    1241
CTETRA        79       1      51     178    1036    1042     879    1247+
+           1248    1249    1250    1251
CTETRA        80       1     120     121    1023    1040     368    1242+
+           1252    1253    1243    1224
CTETRA        81       1     192     200     199    1030     587     586+
+            585    1128    1130    1254
CTETRA        82       1     187     195    1029    1030     572    1255+
+           1256    1257    1100    1258
CTETRA        83       1     207     208     215    1027     608     629+
+            628    1205    1090    1101
CTETRA        84       1     200     208     207    1028     609     608+
+            607    1127    1091    1206
CTETRA        85       1     217     225     224    1024     656     655+
+            654    1193    1078    1172
CTETRA        86       1     187     188     195    1030     552     573+
+            572    1257    1098    1100
CTETRA        87       1     200    1029    1028    1030    1126    1096+
+           1127    1130    1258    1149
CTETRA        88       1      60      98     106    1039     860     327+
+            861    1259    1260    1215
CTETRA        89       1     119     120    1023    1040     365    1252+
+           1235    1236    1253    1224
CTETRA        90       1      92     101     100    1043     308     307+
+            305    1261    1262    1263
CTETRA        91       1     193    1036    1029    1030    1264    1265+
+           1266    1129    1267    1258
CTETRA        92       1     156     164     163    1020     487     486+
+            485    1268    1269    1270
CTETRA        93       1     163     164     171    1037     486     507+
+            506    1271    1272    1273
CTETRA        94       1      47     217      48    1028     945     946+
+             78    1169    1194    1125
CTETRA        95       1      90    1009      91    1043    1274    1275+
+            300    1276    1277    1278
CTETRA        96       1     167     168    1037    1020     498    1279+
+           1280    1281    1282    1283
CTETRA        97       1     195     203     202    1029     594     593+
+            592    1255    1118    1117
CTETRA        98       1     188     189     196    1030     555     576+
+            575    1098    1121    1099
CTETRA        99       1      50     186    1029    1036     881    1284+
+           1285    1286    1287    1265
CTETRA       100       1     208     216     215    1027     631     630+
+            629    1090    1089    1101
CTETRA       101       1     166     167    1037    1020     495    1280+
+           1288    1289    1281    1283
CTETRA       102       1     165     166    1037    1020     492    1288+
+           1290    1291    1289    1283
CTETRA       103       1      54    1019     154    1020    1292    1293+
+            873    1294    1051    1295
CTETRA       104       1     146    1044     147    1019    1296    1297+
+            439    1298    1299    1300
CTETRA       105       1     178    1035    1036    1042    1185    1179+
+           1247    1250    1301    1251
CTETRA       106       1      51    1036    1041    1042    1248    1302+
+           1303    1249    1251    1241
CTETRA       107       1     183     191     190    1041     562     561+
+            560    1237    1229    1304
CTETRA       108       1     191     192     199    1030     564     585+
+            584    1231    1128    1254
CTETRA       109       1     173     174     181    1036     514     535+
+            534    1305    1306    1307
CTETRA       110       1     182    1041    1036    1042    1238    1302+
+           1308    1239    1241    1251
CTETRA       111       1      24      25      95    1009      32     980+
+            983    1013    1014    1309
CTETRA       112       1      51    1041     185    1042    1303    1234+
+            953    1249    1241    1246
CTETRA       113       1     178    1035     179    1036    1185    1176+
+            527    1247    1179    1178
CTETRA       114       1      25      26      96    1009      31     978+
+            981    1014    1017    1310
CTETRA       115       1     174     182     181    1036     537     536+
+            535    1306    1308    1307
CTETRA       116       1      52    1037     170    1042    1311    1312+
+            877    1313    1314    1315
CTETRA       117       1      25      96      95    1009     981     322+
+            980    1014    1310    1309
CTETRA       118       1     173    1037     174    1042    1190    1316+
+            514    1317    1314    1318
CTETRA       119       1     207     208    1027    1028     608    1090+
+           1205    1206    1091    1093
CTETRA       120       1      53      54     154    1020      72     873+
+            874    1319    1294    1295
CTETRA       121       1      62      27       2    1009     977      29+
+             63    1320    1018    1016
CTETRA       122       1      53     154     162    1020     874     481+
+            875    1319    1295    1321
CTETRA       123       1     244     252     251    1034     729     728+
+            727    1322    1142    1141
CTETRA       124       1     256     257     264    1033     743     764+
+            763    1323    1324    1325
CTETRA       125       1     253     254     261    1033     734     755+
+            754    1144    1159    1326
CTETRA       126       1      42     242     250    1034     896     723+
+            897    1327    1328    1329
CTETRA       127       1      42     257      43    1034     935     936+
+             83    1327    1330    1331
CTETRA       128       1      42     265     257    1033     934     766+
+            935    1332    1166    1324
CTETRA       129       1      56    1044     145    1022    1333    1334+
+            963    1335    1336    1337
CTETRA       130       1     253     261     260    1033     754     753+
+            752    1144    1326    1338
CTETRA       131       1      43     257     249    1034     936     744+
+            937    1331    1330    1339
CTETRA       132       1      41     265      42    1033     933     934+
+             84    1165    1166    1332
CTETRA       133       1     144     145    1044    1022     434    1334+
+           1340    1341    1337    1336
CTETRA       134       1     140     141    1044    1022     423    1342+
+           1343    1344    1345    1336
CTETRA       135       1     125    1023     126    1021    1346    1347+
+            381    1348    1065    1349
CTETRA       136       1     142     143    1044    1022     428    1350+
+           1351    1352    1353    1336
CTETRA       137       1     141     142    1044    1022     425    1351+
+           1342    1345    1352    1336
CTETRA       138       1     103     104    1039    1043     319    1354+
+           1355    1356    1357    1358
CTETRA       139       1     100     101    1039    1043     307    1359+
+           1360    1263    1262    1358
CTETRA       140       1     214     215     222    1024     627     648+
+            647    1361    1102    1075
CTETRA       141       1      99     100    1039    1043     303    1360+
+           1362    1363    1263    1358
CTETRA       142       1     165     173     172    1037     512     511+
+            510    1290    1190    1189
CTETRA       143       1     173    1036    1035    1042    1305    1179+
+           1182    1317    1251    1301
CTETRA       144       1      61    1039     105    1043    1364    1365+
+            973    1366    1358    1367
CTETRA       145       1     131     139     138    1022     418     417+
+            416    1368    1369    1370
CTETRA       146       1      98      99    1039    1043     301    1362+
+           1260    1371    1363    1358
CTETRA       147       1     122     123     130    1021     373     394+
+            393    1074    1064    1372
CTETRA       148       1      57     122     130    1021     866     393+
+            867    1373    1074    1372
CTETRA       149       1      61      98    1039    1043     859    1260+
+           1364    1366    1371    1358
CTETRA       150       1     104     105    1039    1043     323    1365+
+           1354    1357    1367    1358
CTETRA       151       1     102     103    1039    1043     315    1355+
+           1374    1375    1356    1358
CTETRA       152       1     101     102    1039    1043     311    1374+
+           1359    1262    1375    1358
CTETRA       153       1      58      59     114    1023      67     863+
+            864    1071    1221    1220
CTETRA       154       1     287     288    1045    1046     828    1376+
+           1377    1378    1379    1380
CTETRA       155       1      40     273      41    1032     931     932+
+             85    1381    1382    1163
CTETRA       156       1     266     267    1032    1033     769    1212+
+           1134    1137    1213    1138
CTETRA       157       1      38    1045     289    1046    1383    1384+
+            927    1385    1380    1386
CTETRA       158       1     288     289    1045    1046     831    1384+
+           1376    1379    1386    1380
CTETRA       159       1      38     282    1045    1046     905    1387+
+           1383    1385    1388    1380
CTETRA       160       1     283     284    1045    1046     816    1389+
+           1390    1391    1392    1380
CTETRA       161       1     282     283    1045    1046     813    1390+
+           1387    1388    1391    1380
CTETRA       162       1     262     270     269    1033     779     778+
+            777    1393    1394    1395
CTETRA       163       1     279     280     287    1046     806     827+
+            826    1396    1397    1378
CTETRA       164       1     270     271     278    1032     781     802+
+            801    1398    1399    1400
CTETRA       165       1     269     270     277    1032     778     799+
+            798    1401    1398    1402
CTETRA       166       1     286     287    1045    1046     825    1377+
+           1403    1404    1378    1380
CTETRA       167       1     278     286     285    1046     823     822+
+            821    1405    1404    1406
CTETRA       168       1     284     285    1045    1046     819    1407+
+           1389    1392    1406    1380
CTETRA       169       1     285     286    1045    1046     822    1403+
+           1407    1406    1404    1380
CTETRA       170       1     177     185     184    1042     546     545+
+            544    1408    1246    1245
CTETRA       171       1     180     181     188    1036     533     554+
+            553    1180    1307    1409
CTETRA       172       1     229     237     236    1026     688     687+
+            686    1084    1410    1411
CTETRA       173       1     247     248     255    1034     718     739+
+            738    1412    1413    1162
CTETRA       174       1     175     176     183    1042     520     541+
+            540    1414    1415    1240
CTETRA       175       1     236     244     243    1047     707     706+
+            705    1416    1417    1418
CTETRA       176       1     183     184    1041    1042     542    1233+
+           1237    1240    1245    1241
CTETRA       177       1     287     288     295    1045     828     849+
+            848    1377    1376    1419
CTETRA       178       1     158    1019     159    1020    1049    1420+
+            473    1052    1051    1421
CTETRA       179       1     133    1021     134    1022    1054    1422+
+            403    1057    1056    1423
CTETRA       180       1     247     255     254    1034     738     737+
+            736    1412    1162    1160
CTETRA       181       1     159    1019     160    1020    1420    1424+
+            475    1421    1051    1425
CTETRA       182       1      48      49     194    1029      77     883+
+            884    1124    1426    1427
CTETRA       183       1      56      57     130    1022      69     867+
+            868    1335    1428    1429
CTETRA       184       1     231     239     238    1026     694     693+
+            692    1155    1430    1431
CTETRA       185       1     164     165    1037    1020     489    1290+
+           1272    1269    1291    1283
CTETRA       186       1     255     256    1033    1034     740    1323+
+           1161    1162    1432    1143
CTETRA       187       1     235     236    1047    1026     684    1416+
+           1433    1434    1411    1435
CTETRA       188       1     246     247     254    1034     715     736+
+            735    1436    1412    1160
CTETRA       189       1      24      95      94    1009     983     318+
+            982    1013    1309    1437
CTETRA       190       1     284     285     292    1045     819     840+
+            839    1389    1407    1438
CTETRA       191       1     127     128     136    1021     387     411+
+            410    1439    1069    1059
CTETRA       192       1     115     116     123    1023     354     375+
+            374    1440    1441    1062
CTETRA       193       1     202     203     210    1028     593     614+
+            613    1119    1120    1170
CTETRA       194       1     257     265     264    1033     766     765+
+            764    1324    1166    1325
CTETRA       195       1     248     249    1034    1047     721    1339+
+           1413    1442    1443    1444
CTETRA       196       1     256     264     263    1033     763     762+
+            761    1323    1325    1445
CTETRA       197       1     102     103     111    1039     315     342+
+            341    1374    1355    1446
CTETRA       198       1     288     296     295    1045     851     850+
+            849    1376    1447    1419
CTETRA       199       1     214     222     221    1024     647     646+
+            645    1361    1075    1083
CTETRA       200       1     215     223     222    1024     650     649+
+            648    1102    1150    1075
CTETRA       201       1     127    1023     128    1021    1448    1067+
+            387    1439    1065    1069
CTETRA       202       1     133     141     140    1022     424     423+
+            422    1057    1345    1344
CTETRA       203       1     218     219     226    1025     637     658+
+            657    1449    1450    1111
CTETRA       204       1     166     174     173    1037     515     514+
+            513    1288    1316    1190
CTETRA       205       1     173     174    1036    1042     514    1306+
+           1305    1317    1318    1251
CTETRA       206       1     226     227     234    1026     659     680+
+            679    1110    1108    1451
CTETRA       207       1      21      91      90    1009     988     300+
+            990    1011    1275    1274
CTETRA       208       1     173     180    1035    1036     532    1177+
+           1182    1305    1180    1179
CTETRA       209       1     144     153     152    1044     457     456+
+            455    1340    1452    1453
CTETRA       210       1      61      90      98    1043     858     298+
+            859    1366    1276    1371
CTETRA       211       1     114     115     122    1023     351     372+
+            371    1220    1440    1073
CTETRA       212       1      26      27      97    1009      30     976+
+            979    1017    1018    1454
CTETRA       213       1     132     140     139    1022     421     420+
+            419    1055    1344    1369
CTETRA       214       1     103     104     112    1039     319     345+
+            344    1355    1354    1455
CTETRA       215       1     104     105     113    1039     323     348+
+            347    1354    1365    1456
CTETRA       216       1      95     104     103    1043     320     319+
+            317    1457    1357    1356
CTETRA       217       1     111     120     119    1040     366     365+
+            364    1458    1253    1236
CTETRA       218       1     111     112     120    1040     343     367+
+            366    1458    1459    1253
CTETRA       219       1      22      23      93    1009      34     984+
+            987    1010    1012    1460
CTETRA       220       1     107     108     115    1040     332     353+
+            352    1219    1461    1462
CTETRA       221       1      59     106     114    1040     862     349+
+            863    1222    1217    1223
CTETRA       222       1     100     109     108    1039     335     334+
+            333    1360    1463    1464
CTETRA       223       1      94    1009      95    1043    1437    1309+
+            318    1465    1277    1457
CTETRA       224       1      91      99      98    1043     302     301+
+            299    1278    1363    1371
CTETRA       225       1     154    1019     155    1020    1293    1466+
+            461    1295    1051    1467
CTETRA       226       1      54     153      55    1019     960     961+
+             71    1292    1468    1469
CTETRA       227       1     110     119     118    1040     363     362+
+            361    1470    1236    1228
CTETRA       228       1     156    1019     157    1020    1471    1048+
+            467    1268    1051    1050
CTETRA       229       1     258     259     266    1033     747     768+
+            767    1136    1472    1137
CTETRA       230       1      57     137     129    1021     965     414+
+            966    1373    1473    1070
CTETRA       231       1      39     281      40    1032     929     930+
+             86    1474    1475    1381
CTETRA       232       1     125     126     134    1021     381     405+
+            404    1348    1349    1422
CTETRA       233       1      21      22      92    1009      35     986+
+            989    1011    1010    1476
CTETRA       234       1     140     148     147    1044     443     442+
+            441    1343    1477    1297
CTETRA       235       1     132     133     140    1022     401     422+
+            421    1055    1057    1344
CTETRA       236       1     104     113     112    1039     347     346+
+            345    1354    1456    1455
CTETRA       237       1     179     180     187    1036     530     551+
+            550    1178    1180    1478
CTETRA       238       1      43     234     242    1047     894     701+
+            895    1479    1480    1481
CTETRA       239       1      60     113     105    1039     971     348+
+            972    1259    1456    1365
CTETRA       240       1     133     142     141    1022     426     425+
+            424    1057    1352    1345
CTETRA       241       1     176     184     183    1042     543     542+
+            541    1415    1245    1240
CTETRA       242       1     157     165     164    1020     490     489+
+            488    1050    1291    1269
CTETRA       243       1     163     164    1037    1020     486    1272+
+           1271    1270    1269    1283
CTETRA       244       1     174     175     182    1042     517     538+
+            537    1318    1414    1239
CTETRA       245       1      54     161    1019    1020     959    1482+
+           1292    1294    1483    1051
CTETRA       246       1     135     136     144    1022     409     433+
+            432    1060    1061    1341
CTETRA       247       1     269     277     276    1032     798     797+
+            796    1401    1402    1484
CTETRA       248       1     139     140     147    1044     420     441+
+            440    1485    1343    1297
CTETRA       249       1     190    1041     191    1030    1304    1229+
+            561    1122    1232    1231
CTETRA       250       1      50    1029     193    1036    1285    1266+
+            951    1286    1265    1264
CTETRA       251       1     151     152     160    1019     453     477+
+            476    1486    1487    1424
CTETRA       252       1      52     162     170    1037     876     503+
+            877    1311    1488    1312
CTETRA       253       1     134     135     143    1022     406     430+
+            429    1423    1060    1353
CTETRA       254       1     148     149     156    1019     445     466+
+            465    1489    1490    1471
CTETRA       255       1     117     125     124    1023     380     379+
+            378    1226    1346    1063
CTETRA       256       1     101     110     109    1039     338     337+
+            336    1359    1491    1463
CTETRA       257       1     182    1041     190    1036    1238    1304+
+            559    1308    1302    1492
CTETRA       258       1     150     151     158    1019     450     472+
+            471    1493    1486    1049
CTETRA       259       1     108     109     117    1040     334     358+
+            357    1461    1494    1227
CTETRA       260       1      48     194     202    1029     884     591+
+            885    1124    1427    1117
CTETRA       261       1      60     113    1039    1040     971    1456+
+           1259    1495    1496    1218
CTETRA       262       1     286     294     293    1045     845     844+
+            843    1403    1497    1498
CTETRA       263       1     160     168     167    1020     499     498+
+            497    1425    1282    1281
CTETRA       264       1      43     242    1034    1047     895    1328+
+           1331    1479    1481    1444
CTETRA       265       1     168     169     176    1037     500     522+
+            521    1279    1499    1500
CTETRA       266       1      51      52     170    1042      74     877+
+            878    1249    1313    1315
CTETRA       267       1     203     204     211    1028     596     617+
+            616    1120    1146    1201
CTETRA       268       1      43     249      44    1047     937     938+
+             82    1479    1443    1501
CTETRA       269       1      22      93      92    1009     987     310+
+            986    1010    1460    1476
CTETRA       270       1     237     245     244    1047     710     709+
+            708    1502    1503    1417
CTETRA       271       1     193     201     200    1029     590     589+
+            588    1266    1504    1126
CTETRA       272       1     235     236     243    1047     684     705+
+            704    1433    1416    1418
CTETRA       273       1     173     181     180    1036     534     533+
+            532    1305    1307    1180
CTETRA       274       1     203    1028    1029    1030    1120    1096+
+           1118    1147    1149    1258
CTETRA       275       1      53     169     161    1020     957     502+
+            958    1319    1505    1483
CTETRA       276       1      49     186     194    1029     882     569+
+            883    1426    1284    1427
CTETRA       277       1     171     179     178    1035     528     527+
+            526    1184    1176    1185
CTETRA       278       1     255     263     262    1033     760     759+
+            758    1161    1445    1393
CTETRA       279       1     251     252     259    1033     728     749+
+            748    1140    1139    1472
CTETRA       280       1     199     200    1028    1030     586    1127+
+           1506    1254    1130    1149
CTETRA       281       1     197    1028     204    1030    1507    1146+
+            598    1123    1149    1148
CTETRA       282       1     254     255     262    1033     737     758+
+            757    1159    1161    1393
CTETRA       283       1     194     195     202    1029     571     592+
+            591    1427    1255    1117
CTETRA       284       1     199     207     206    1028     606     605+
+            604    1506    1206    1114
CTETRA       285       1      41      42     250    1033      84     897+
+            898    1165    1332    1210
CTETRA       286       1     225     233    1031    1025     678    1187+
+           1186    1081    1192    1153
CTETRA       287       1     219     227     226    1025     660     659+
+            658    1450    1109    1111
CTETRA       288       1     159     160     167    1020     475     497+
+            496    1421    1425    1281
CTETRA       289       1     189     197     196    1030     578     577+
+            576    1121    1123    1099
CTETRA       290       1      51     193    1041    1036     952    1244+
+           1303    1248    1264    1302
CTETRA       291       1      47     202     210    1028     886     613+
+            887    1169    1119    1170
CTETRA       292       1     225     233     232    1031     678     677+
+            676    1186    1187    1154
CTETRA       293       1     141     142     150    1044     425     449+
+            448    1342    1351    1508
CTETRA       294       1     196     197     204    1030     577     598+
+            597    1099    1123    1148
CTETRA       295       1     130     131     138    1022     395     416+
+            415    1429    1368    1370
CTETRA       296       1     142     143     151    1044     428     452+
+            451    1351    1350    1509
CTETRA       297       1     142     151     150    1044     451     450+
+            449    1351    1509    1508
CTETRA       298       1      50     201     193    1029     950     590+
+            951    1285    1504    1266
CTETRA       299       1     193    1029     200    1030    1266    1126+
+            588    1129    1258    1130
CTETRA       300       1     216     224     223    1024     653     652+
+            651    1104    1172    1150
CTETRA       301       1       1     290       3     993     908     909+
+             11    1002    1510    1008
CTETRA       302       1       3     290     291     991     909     835+
+            910    1007    1511    1512
CTETRA       303       1     280     288     287    1046     829     828+
+            827    1397    1379    1378
CTETRA       304       1      40     258     266    1032     900     767+
+            901    1381    1135    1134
CTETRA       305       1     290     991     993    1045    1511    1006+
+           1510    1513    1514    1515
CTETRA       306       1     227     228     235    1026     662     683+
+            682    1108    1085    1434
CTETRA       307       1     107    1039     108    1040    1216    1464+
+            332    1219    1218    1461
CTETRA       308       1     220     221     228    1025     643     664+
+            663    1174    1175    1086
CTETRA       309       1     123     131     130    1021     396     395+
+            394    1064    1516    1372
CTETRA       310       1     120     129     128    1023     391     390+
+            389    1252    1068    1067
CTETRA       311       1      59     121     113    1040     969     370+
+            970    1222    1243    1496
CTETRA       312       1      58     129     121    1023     967     392+
+            968    1071    1068    1242
CTETRA       313       1     232     240     239    1026     697     696+
+            695    1157    1517    1430
CTETRA       314       1      37     282     290    1045     906     833+
+            907    1518    1387    1513
CTETRA       315       1     247     248    1034    1047     718    1413+
+           1412    1519    1442    1444
CTETRA       316       1     173    1035    1037    1042    1182    1191+
+           1190    1317    1301    1314
CTETRA       317       1     259     267     266    1033     770     769+
+            768    1472    1213    1137
CTETRA       318       1     160    1019     161    1020    1424    1482+
+            478    1425    1051    1483
CTETRA       319       1     279     280    1046    1032     806    1397+
+           1396    1520    1521    1522
CTETRA       320       1     279     287     286    1046     826     825+
+            824    1396    1378    1404
CTETRA       321       1      39    1046     281    1032    1523    1524+
+            929    1474    1522    1475
CTETRA       322       1     276     284     283    1046     817     816+
+            815    1525    1392    1391
CTETRA       323       1      41     258    1032    1033     899    1135+
+           1163    1165    1136    1138
CTETRA       324       1     259     260     267    1033     750     771+
+            770    1472    1338    1213
CTETRA       325       1      43    1034     249    1047    1331    1339+
+            937    1479    1444    1443
CTETRA       326       1      99     107     106    1039     330     329+
+            328    1362    1216    1215
CTETRA       327       1     276     277    1046    1032     797    1526+
+           1525    1484    1402    1522
CTETRA       328       1     267     268     275    1032     772     793+
+            792    1212    1211    1527
CTETRA       329       1     268     276     275    1032     795     794+
+            793    1211    1484    1527
CTETRA       330       1     230    1031     231    1026    1107    1106+
+            671    1528    1156    1155
CTETRA       331       1       6     293     294     992     915     844+
+            916     998    1529    1530
CTETRA       332       1     228     229     236    1026     665     686+
+            685    1085    1084    1411
CTETRA       333       1      45     233      46    1025     941     942+
+             80    1133    1192    1080
CTETRA       334       1     230     231     238    1026     671     692+
+            691    1528    1155    1431
CTETRA       335       1     265     273     272    1032     788     787+
+            786    1164    1382    1531
CTETRA       336       1     248     256     255    1034     741     740+
+            739    1413    1432    1162
CTETRA       337       1     238     246     245    1047     713     712+
+            711    1532    1533    1503
CTETRA       338       1     160     169     168    1020     501     500+
+            499    1425    1505    1282
CTETRA       339       1     116     124     123    1023     377     376+
+            375    1441    1063    1062
CTETRA       340       1     117     126     125    1023     382     381+
+            380    1226    1347    1346
CTETRA       341       1     141     149     148    1044     446     445+
+            444    1342    1534    1477
CTETRA       342       1     147     148     155    1019     442     463+
+            462    1300    1489    1466
CTETRA       343       1     186     187    1029    1036     549    1256+
+           1284    1287    1478    1265
CTETRA       344       1     170     171    1035    1037     505    1184+
+           1183    1312    1273    1191
CTETRA       345       1     120     121     129    1023     368     392+
+            391    1252    1242    1068
CTETRA       346       1     197     205     204    1028     600     599+
+            598    1507    1116    1146
CTETRA       347       1     107     115     114    1040     352     351+
+            350    1219    1462    1223
CTETRA       348       1     179     187     186    1036     550     549+
+            548    1178    1478    1287
CTETRA       349       1     167     168     175    1037     498     519+
+            518    1280    1279    1535
CTETRA       350       1     240     248     247    1047     719     718+
+            717    1536    1442    1519
CTETRA       351       1      43      44     234    1047      82     893+
+            894    1479    1501    1480
CTETRA       352       1     130    1021     131    1022    1372    1516+
+            395    1429    1056    1368
CTETRA       353       1     157     158     165    1020     470     491+
+            490    1050    1052    1291
CTETRA       354       1     244     245    1034    1047     709    1537+
+           1322    1417    1503    1444
CTETRA       355       1     108     116     115    1040     355     354+
+            353    1461    1538    1462
CTETRA       356       1       3     290     991     993     909    1511+
+           1007    1008    1510    1006
CTETRA       357       1     254     262     261    1033     757     756+
+            755    1159    1393    1326
CTETRA       358       1     282     283     290    1045     813     834+
+            833    1387    1390    1513
CTETRA       359       1       5     293       6     991     914     915+
+             14     994    1539     999
CTETRA       360       1     195     203    1029    1030     594    1118+
+           1255    1100    1147    1258
CTETRA       361       1     252     253     260    1033     731     752+
+            751    1139    1144    1338
CTETRA       362       1     206     214     213    1027     625     624+
+            623    1112    1209    1113
CTETRA       363       1     229     230    1026    1025     668    1528+
+           1084    1087    1152    1088
CTETRA       364       1       4     291     292     991     911     838+
+            912     995    1512    1540
CTETRA       365       1      59      60     106    1040      66     861+
+            862    1222    1495    1217
CTETRA       366       1      96    1009      97    1043    1310    1454+
+            326    1541    1277    1542
CTETRA       367       1     269     270    1032    1033     778    1398+
+           1401    1395    1394    1138
CTETRA       368       1     275     276     283    1046     794     815+
+            814    1543    1525    1391
CTETRA       369       1     286     287     294    1045     825     846+
+            845    1403    1377    1497
CTETRA       370       1     114     115    1023    1040     351    1440+
+           1220    1223    1462    1224
CTETRA       371       1     110     111     119    1040     340     364+
+            363    1470    1458    1236
CTETRA       372       1     284     292     291    1045     839     838+
+            837    1389    1438    1544
CTETRA       373       1     126     127     135    1021     384     408+
+            407    1349    1439    1058
CTETRA       374       1     277     278     285    1046     800     821+
+            820    1526    1405    1406
CTETRA       375       1     295     296     992    1045     850    1545+
+           1546    1419    1447    1547
CTETRA       376       1      51     185      52    1042     953     954+
+             74    1249    1246    1313
CTETRA       377       1     143     144    1044    1022     431    1340+
+           1350    1353    1341    1336
CTETRA       378       1     112    1039     113    1040    1455    1456+
+            346    1459    1218    1496
CTETRA       379       1     160     161     169    1020     478     502+
+            501    1425    1483    1505
CTETRA       380       1     182     190     189    1036     559     558+
+            557    1308    1492    1548
CTETRA       381       1     184     192     191    1041     565     564+
+            563    1233    1230    1229
CTETRA       382       1      49      50     186    1029      76     881+
+            882    1426    1285    1284
CTETRA       383       1     243     244    1034    1047     706    1322+
+           1549    1418    1417    1444
CTETRA       384       1     264     265    1032    1033     765    1164+
+           1550    1325    1166    1138
CTETRA       385       1     274     275     282    1046     791     812+
+            811    1551    1543    1388
CTETRA       386       1     263    1032     270    1033    1552    1398+
+            780    1445    1138    1394
CTETRA       387       1     186     187     194    1029     549     570+
+            569    1284    1256    1427
CTETRA       388       1     188    1036     189    1030    1409    1548+
+            555    1098    1267    1121
CTETRA       389       1     216    1024    1027    1028    1104    1103+
+           1089    1092    1171    1093
CTETRA       390       1      21      92      91    1009     989     306+
+            988    1011    1476    1275
CTETRA       391       1     231     232     239    1026     674     695+
+            694    1155    1157    1430
CTETRA       392       1      23      94      93    1009     985     314+
+            984    1012    1437    1460
CTETRA       393       1      93    1009      94    1043    1460    1437+
+            314    1553    1277    1465
CTETRA       394       1      52     177     169    1037     955     524+
+            956    1311    1554    1499
CTETRA       395       1      91      92     100    1043     306     305+
+            304    1278    1261    1263
CTETRA       396       1      62      97      27    1009     975     976+
+            977    1320    1454    1018
CTETRA       397       1     229     230     237    1026     668     689+
+            688    1084    1528    1410
CTETRA       398       1     101     102     110    1039     311     339+
+            338    1359    1374    1491
CTETRA       399       1     152     153     161    1019     456     480+
+            479    1487    1468    1482
CTETRA       400       1     139     147     146    1044     440     439+
+            438    1485    1297    1296
CTETRA       401       1     149     150     157    1019     447     469+
+            468    1490    1493    1048
CTETRA       402       1     115     116    1023    1040     354    1441+
+           1440    1462    1538    1224
CTETRA       403       1     148     156     155    1019     465     464+
+            463    1489    1471    1466
CTETRA       404       1     125     133     132    1021     402     401+
+            400    1348    1054    1053
CTETRA       405       1     112     113     121    1040     346     370+
+            369    1459    1496    1243
CTETRA       406       1      90      91      98    1043     300     299+
+            298    1276    1278    1371
CTETRA       407       1      94     103     102    1043     316     315+
+            313    1465    1356    1375
CTETRA       408       1      93      94     102    1043     314     313+
+            312    1553    1465    1375
CTETRA       409       1      58     114     122    1023     864     371+
+            865    1071    1220    1073
CTETRA       410       1     128     137     136    1021     413     412+
+            411    1069    1473    1059
CTETRA       411       1     205     213     212    1028     622     621+
+            620    1116    1115    1200
CTETRA       412       1      57    1021     130    1022    1373    1372+
+            867    1428    1056    1429
CTETRA       413       1     131    1021     132    1022    1516    1053+
+            398    1368    1056    1055
CTETRA       414       1     151     160     159    1019     476     475+
+            474    1486    1424    1420
CTETRA       415       1     138     139     146    1044     417     438+
+            437    1555    1485    1296
CTETRA       416       1     112     121     120    1040     369     368+
+            367    1459    1243    1253
CTETRA       417       1     108     117     116    1040     357     356+
+            355    1461    1227    1538
CTETRA       418       1     123     124     131    1021     376     397+
+            396    1064    1066    1516
CTETRA       419       1     149    1044     150    1019    1534    1508+
+            447    1490    1299    1493
CTETRA       420       1     152     161     160    1019     479     478+
+            477    1487    1482    1424
CTETRA       421       1     106     107     114    1040     329     350+
+            349    1217    1219    1223
CTETRA       422       1     149     157     156    1019     468     467+
+            466    1490    1048    1471
CTETRA       423       1      51     170     178    1042     878     525+
+            879    1249    1315    1250
CTETRA       424       1     162     163    1037    1020     483    1271+
+           1488    1321    1270    1283
CTETRA       425       1      62    1009      90    1043    1320    1274+
+            856    1556    1277    1276
CTETRA       426       1     139     140    1044    1022     420    1343+
+           1485    1369    1344    1336
CTETRA       427       1      61      97      62    1043     974     975+
+             64    1366    1542    1556
CTETRA       428       1      62      97    1009    1043     975    1454+
+           1320    1556    1542    1277
CTETRA       429       1     276     277     284    1046     797     818+
+            817    1525    1526    1392
CTETRA       430       1      46      47     210    1024      79     887+
+            888    1079    1168    1167
CTETRA       431       1     189    1036     190    1030    1548    1492+
+            558    1121    1267    1122
CTETRA       432       1     197     198     205    1028     580     601+
+            600    1507    1557    1116
CTETRA       433       1     221     229     228    1025     666     665+
+            664    1175    1087    1086
CTETRA       434       1      45     218     226    1025     890     657+
+            891    1133    1449    1111
CTETRA       435       1     213     214     221    1024     624     645+
+            644    1197    1361    1083
CTETRA       436       1     238     239     246    1047     693     714+
+            713    1532    1558    1533
CTETRA       437       1     239     240     247    1047     696     717+
+            716    1558    1536    1519
CTETRA       438       1      38     289      39    1046     927     928+
+             87    1385    1386    1523
CTETRA       439       1     260     261     268    1033     753     774+
+            773    1338    1326    1214
CTETRA       440       1      38     297     289    1045     926     854+
+            927    1383    1559    1384
CTETRA       441       1     237     238     245    1047     690     711+
+            710    1502    1532    1503
CTETRA       442       1     287     295     294    1045     848     847+
+            846    1377    1419    1497
CTETRA       443       1      40     281     273    1032     930     810+
+            931    1381    1475    1382
CTETRA       444       1      41     273     265    1032     932     788+
+            933    1163    1382    1164
CTETRA       445       1      37     297      38    1045     925     926+
+             88    1518    1559    1383
CTETRA       446       1     224     225     232    1031     655     676+
+            675    1158    1186    1154
CTETRA       447       1      39      40     266    1032      86     901+
+            902    1474    1381    1134
CTETRA       448       1     267     275     274    1032     792     791+
+            790    1212    1527    1560
CTETRA       449       1     212     220     219    1038     641     640+
+            639    1199    1195    1207
CTETRA       450       1     210     211     218    1024     615     636+
+            635    1167    1203    1561
CTETRA       451       1      45      46     218    1025      80     889+
+            890    1133    1080    1449
CTETRA       452       1      52      53     162    1037      73     875+
+            876    1311    1562    1488
CTETRA       453       1     154     155     162    1020     461     482+
+            481    1295    1467    1321
CTETRA       454       1     150    1044     151    1019    1508    1509+
+            450    1493    1299    1486
CTETRA       455       1     170    1035     178    1042    1183    1185+
+            525    1315    1301    1250
CTETRA       456       1     166     167     174    1037     495     516+
+            515    1288    1280    1316
CTETRA       457       1     278     279    1046    1032     803    1396+
+           1405    1400    1520    1522
CTETRA       458       1       4     292       5     991     912     913+
+             13     995    1540     994
CTETRA       459       1     268     269     276    1032     775     796+
+            795    1211    1401    1484
CTETRA       460       1     263     271     270    1032     782     781+
+            780    1552    1399    1398
CTETRA       461       1     109     110     118    1040     337     361+
+            360    1494    1470    1228
CTETRA       462       1     110    1039     111    1040    1491    1446+
+            340    1470    1218    1458
CTETRA       463       1     213     221     220    1024     644     643+
+            642    1197    1083    1173
CTETRA       464       1      45     241     233    1026     940     700+
+            941    1132    1563    1188
CTETRA       465       1      37     993     297    1045    1564    1565+
+            925    1518    1515    1559
CTETRA       466       1      62       2      20    1009      63      28+
+            855    1320    1016    1015
CTETRA       467       1      91     100      99    1043     304     303+
+            302    1278    1263    1363
CTETRA       468       1     141     150     149    1044     448     447+
+            446    1342    1508    1534
CTETRA       469       1     140     141     148    1044     423     444+
+            443    1343    1342    1477
CTETRA       470       1      91    1009      92    1043    1275    1476+
+            306    1278    1277    1261
CTETRA       471       1     168     169    1037    1020     500    1499+
+           1279    1282    1505    1283
CTETRA       472       1      93     102     101    1043     312     311+
+            309    1553    1375    1262
CTETRA       473       1      57      58     122    1021      68     865+
+            866    1373    1072    1074
CTETRA       474       1      44      45     226    1026      81     891+
+            892    1566    1132    1110
CTETRA       475       1     273     281     280    1032     810     809+
+            808    1382    1475    1521
CTETRA       476       1      99     100     107    1039     303     331+
+            330    1362    1360    1216
CTETRA       477       1     256     257    1033    1034     743    1324+
+           1323    1432    1330    1143
CTETRA       478       1     264     265     272    1032     765     786+
+            785    1550    1164    1531
CTETRA       479       1     103     112     111    1039     344     343+
+            342    1355    1455    1446
CTETRA       480       1      61      62      90    1043      64     856+
+            858    1366    1556    1276
CTETRA       481       1      59     113      60    1040     970     971+
+             66    1222    1496    1495
CTETRA       482       1     249     257     256    1034     744     743+
+            742    1339    1330    1432
CTETRA       483       1     199     200     207    1028     586     607+
+            606    1506    1127    1206
CTETRA       484       1     102     111     110    1039     341     340+
+            339    1374    1446    1491
CTETRA       485       1     196     204     203    1030     597     596+
+            595    1099    1148    1147
CTETRA       486       1      47     225     217    1024     944     656+
+            945    1168    1078    1193
CTETRA       487       1     117     118     126    1023     359     383+
+            382    1226    1225    1347
CTETRA       488       1     151    1044     152    1019    1509    1453+
+            453    1486    1299    1487
CTETRA       489       1     108    1039     109    1040    1464    1463+
+            334    1461    1218    1494
CTETRA       490       1     118     119     127    1023     362     386+
+            385    1225    1235    1448
CTETRA       491       1      52     185     177    1042     954     546+
+            955    1313    1246    1408
CTETRA       492       1      51     193     185    1041     952     568+
+            953    1303    1244    1234
CTETRA       493       1     165     166     173    1037     492     513+
+            512    1290    1288    1190
CTETRA       494       1      53    1037     169    1020    1562    1499+
+            957    1319    1283    1505
CTETRA       495       1     146     147     154    1019     439     460+
+            459    1298    1300    1293
CTETRA       496       1     147     155     154    1019     462     461+
+            460    1300    1466    1293
CTETRA       497       1      50     193      51    1036     951     952+
+             75    1286    1264    1248
CTETRA       498       1     174    1037     175    1042    1316    1535+
+            517    1318    1314    1414
CTETRA       499       1     175     183     182    1042     540     539+
+            538    1414    1240    1239
CTETRA       500       1     176    1037     177    1042    1500    1554+
+            523    1415    1314    1408
CTETRA       501       1     164     165     172    1037     489     510+
+            509    1272    1290    1189
CTETRA       502       1      49     201      50    1029     949     950+
+             76    1426    1504    1285
CTETRA       503       1     211     212     219    1038     618     639+
+            638    1202    1199    1207
CTETRA       504       1     201     209     208    1029     612     611+
+            610    1504    1095    1094
CTETRA       505       1     148    1044     149    1019    1477    1534+
+            445    1489    1299    1490
CTETRA       506       1     200     201     208    1029     589     610+
+            609    1126    1504    1094
CTETRA       507       1      61     105      97    1043     973     325+
+            974    1366    1367    1542
CTETRA       508       1      96     105     104    1043     324     323+
+            321    1541    1367    1357
CTETRA       509       1      46     225      47    1024     943     944+
+             79    1079    1078    1168
CTETRA       510       1     219     220     227    1025     640     661+
+            660    1450    1174    1109
CTETRA       511       1     216     217     224    1024     633     654+
+            653    1104    1193    1172
CTETRA       512       1     289     297     296    1045     854     853+
+            852    1384    1559    1447
CTETRA       513       1     255     256     263    1033     740     761+
+            760    1161    1323    1445
CTETRA       514       1      37       1      10     993      89      19+
+            924    1564    1002    1001
CTETRA       515       1     296     993     992    1045    1567    1005+
+           1545    1447    1515    1547
CTETRA       516       1     239     247     246    1047     716     715+
+            714    1558    1519    1533
CTETRA       517       1     296     297     993    1045     853    1565+
+           1567    1447    1559    1515
CTETRA       518       1      46     233     225    1025     942     678+
+            943    1080    1192    1081
CTETRA       519       1     218    1024     219    1025    1561    1208+
+            637    1449    1082    1450
CTETRA       520       1      37     290       1     993     907     908+
+             89    1564    1510    1002
CTETRA       521       1      37     290     993    1045     907    1510+
+           1564    1518    1513    1515
CTETRA       522       1       9     296     297     993     921     853+
+            922    1004    1567    1565
CTETRA       523       1     227     235     234    1026     682     681+
+            680    1108    1434    1451
CTETRA       524       1      55     153    1044    1019     961    1452+
+           1568    1469    1468    1299
CTETRA       525       1      42     250    1033    1034     897    1210+
+           1332    1327    1329    1143
CTETRA       526       1     285     293     292    1045     842     841+
+            840    1407    1498    1438
CTETRA       527       1      38      39     274    1046      87     903+
+            904    1385    1523    1551
CTETRA       528       1     266     267     274    1032     769     790+
+            789    1134    1212    1560
CTETRA       529       1     263     264    1032    1033     762    1550+
+           1552    1445    1325    1138
CTETRA       530       1     272     273     280    1032     787     808+
+            807    1531    1382    1521
CTETRA       531       1     275     283     282    1046     814     813+
+            812    1543    1391    1388
CTETRA       532       1     119     120     128    1023     365     389+
+            388    1235    1252    1067
CTETRA       533       1      39     289     281    1046     928     832+
+            929    1523    1386    1524
CTETRA       534       1     242     243    1034    1047     703    1549+
+           1328    1481    1418    1444
CTETRA       535       1     268     269    1032    1033     775    1401+
+           1211    1214    1395    1138
CTETRA       536       1     236     237    1047    1026     687    1502+
+           1416    1411    1410    1435
CTETRA       537       1     280     281     288    1046     809     830+
+            829    1397    1524    1379
CTETRA       538       1     252     260     259    1033     751     750+
+            749    1139    1338    1472
CTETRA       539       1     167     175     174    1037     518     517+
+            516    1280    1535    1316
CTETRA       540       1     245     253     252    1034     732     731+
+            730    1537    1145    1142
CTETRA       541       1     244     245     252    1034     709     730+
+            729    1322    1537    1142
CTETRA       542       1     243     244     251    1034     706     727+
+            726    1549    1322    1141
CTETRA       543       1     182     183     190    1041     539     560+
+            559    1238    1237    1304
CTETRA       544       1     176     177     184    1042     523     544+
+            543    1415    1408    1245
CTETRA       545       1     241     249     248    1047     722     721+
+            720    1569    1443    1442
CTETRA       546       1      52     169      53    1037     956     957+
+             73    1311    1499    1562
CTETRA       547       1      55     153     145    1044     961     458+
+            962    1568    1452    1334
CTETRA       548       1      92    1009      93    1043    1476    1460+
+            310    1261    1277    1553
CTETRA       549       1     144     145     153    1044     434     458+
+            457    1340    1334    1452
CTETRA       550       1     272     280     279    1032     807     806+
+            805    1531    1521    1520
CTETRA       551       1     278     279     286    1046     803     824+
+            823    1405    1396    1404
CTETRA       552       1     147    1044     148    1019    1297    1477+
+            442    1300    1299    1489
CTETRA       553       1      48     209      49    1029     947     948+
+             77    1124    1095    1426
CTETRA       554       1     143     152     151    1044     454     453+
+            452    1350    1453    1509
CTETRA       555       1     172     180     179    1035     531     530+
+            529    1181    1177    1176
CTETRA       556       1     134     143     142    1022     429     428+
+            427    1423    1353    1352
CTETRA       557       1     180     188     187    1036     553     552+
+            551    1180    1409    1478
CTETRA       558       1     156     157     164    1020     467     488+
+            487    1268    1050    1269
CTETRA       559       1     162     163     170    1037     483     504+
+            503    1488    1271    1312
CTETRA       560       1     152    1044     153    1019    1453    1452+
+            456    1487    1299    1468
CTETRA       561       1     210     211    1024    1028     615    1203+
+           1167    1170    1201    1171
CTETRA       562       1     159     167     166    1020     496     495+
+            494    1421    1281    1289
CTETRA       563       1     168     176     175    1037     521     520+
+            519    1279    1500    1535
CTETRA       564       1      49     209     201    1029     948     612+
+            949    1426    1095    1504
CTETRA       565       1     234     235     242    1047     681     702+
+            701    1480    1433    1481
CTETRA       566       1     213    1027    1024    1028    1113    1103+
+           1197    1115    1093    1171
CTETRA       567       1      56     130     138    1022     868     415+
+            869    1335    1429    1370
CTETRA       568       1      55     138     146    1044     870     437+
+            871    1568    1555    1296
CTETRA       569       1     203     211     210    1028     616     615+
+            614    1120    1201    1170
CTETRA       570       1     240     241    1047    1026     699    1569+
+           1536    1517    1563    1435
CTETRA       571       1     229    1024     230    1025    1077    1076+
+            668    1087    1082    1152
CTETRA       572       1      38     274     282    1046     904     811+
+            905    1385    1551    1388
CTETRA       573       1      54      55     146    1019      71     871+
+            872    1292    1469    1298
CTETRA       574       1     263     264     271    1032     762     783+
+            782    1552    1550    1399
CTETRA       575       1     155    1019     156    1020    1466    1471+
+            464    1467    1051    1268
CTETRA       576       1      39     266     274    1032     902     789+
+            903    1474    1134    1560
CTETRA       577       1     261     269     268    1033     776     775+
+            774    1326    1395    1214
CTETRA       578       1     274     275    1046    1032     791    1543+
+           1551    1560    1527    1522
CTETRA       579       1     136     145     144    1022     435     434+
+            433    1061    1337    1341
CTETRA       580       1     135     144     143    1022     432     431+
+            430    1060    1341    1353
CTETRA       581       1     187    1029    1036    1030    1256    1265+
+           1478    1257    1258    1267
CTETRA       582       1     131     132     139    1022     398     419+
+            418    1368    1055    1369
CTETRA       583       1     283     291     290    1045     836     835+
+            834    1390    1544    1513
CTETRA       584       1     277     285     284    1046     820     819+
+            818    1526    1406    1392
CTETRA       585       1       8     295     296     992     919     850+
+            920     997    1546    1545
CTETRA       586       1      48    1029     202    1028    1124    1117+
+            885    1125    1096    1119
CTETRA       587       1     293     992     991    1045    1529    1000+
+           1539    1498    1547    1514
CTETRA       588       1     264     272     271    1032     785     784+
+            783    1550    1531    1399
CTETRA       589       1     277     278    1046    1032     800    1405+
+           1526    1402    1400    1522
CTETRA       590       1       6     294       7     992     916     917+
+             15     998    1530     996
CTETRA       591       1     275     276    1046    1032     794    1525+
+           1543    1527    1484    1522
CTETRA       592       1       7     294     295     992     917     847+
+            918     996    1530    1546
CTETRA       593       1      26      97      96    1009     979     326+
+            978    1017    1454    1310
CTETRA       594       1     251     259     258    1033     748     747+
+            746    1140    1472    1136
CTETRA       595       1      56     145     137    1022     963     436+
+            964    1335    1337    1570
CTETRA       596       1      20      21      90    1009      36     990+
+            857    1015    1011    1274
CTETRA       597       1      62      20      90    1009     855     857+
+            856    1320    1015    1274
CTETRA       598       1       9     992     296     993    1003    1545+
+            921    1004    1005    1567
CTETRA       599       1     100     101     109    1039     307     336+
+            335    1360    1359    1463
CTETRA       600       1     288     289     296    1045     831     852+
+            851    1376    1384    1447
CTETRA       601       1     204     205     212    1028     599     620+
+            619    1146    1116    1200
CTETRA       602       1      96      97     105    1043     326     325+
+            324    1541    1542    1367
CTETRA       603       1      95      96     104    1043     322     321+
+            320    1457    1541    1357
CTETRA       604       1      92      93     101    1043     310     309+
+            308    1261    1553    1262
CTETRA       605       1     109     118     117    1040     360     359+
+            358    1494    1228    1227
CTETRA       606       1     211     219     218    1024     638     637+
+            636    1203    1208    1561
CTETRA       607       1     136     137     145    1022     412     436+
+            435    1061    1570    1337
CTETRA       608       1      48     217     209    1028     946     634+
+            947    1125    1194    1097
CTETRA       609       1      52     177    1037    1042     955    1554+
+           1311    1313    1408    1314
CTETRA       610       1     124    1023     125    1021    1063    1346+
+            379    1066    1065    1348
CTETRA       611       1     164     172     171    1037     509     508+
+            507    1272    1189    1273
CTETRA       612       1      50     178     186    1036     880     547+
+            881    1286    1247    1287
CTETRA       613       1     163     171     170    1037     506     505+
+            504    1271    1273    1312
CTETRA       614       1     181     189     188    1036     556     555+
+            554    1307    1548    1409
CTETRA       615       1     213    1027     214    1024    1113    1209+
+            624    1197    1103    1361
CTETRA       616       1     280     281    1046    1032     809    1524+
+           1397    1521    1475    1522
CTETRA       617       1     230    1031    1026    1025    1107    1156+
+           1528    1152    1153    1088
CTETRA       618       1     211    1038     219    1024    1202    1207+
+            638    1203    1198    1208
CTETRA       619       1     190     191     198    1030     561     582+
+            581    1122    1231    1131
CTETRA       620       1     270     278     277    1032     801     800+
+            799    1398    1400    1402
CTETRA       621       1     191     199     198    1030     584     583+
+            582    1231    1254    1131
CTETRA       622       1     198     206     205    1028     603     602+
+            601    1557    1114    1116
CTETRA       623       1     208     209     216    1028     611     632+
+            631    1091    1097    1092
CTETRA       624       1     214    1027     215    1024    1209    1101+
+            627    1361    1103    1102
CTETRA       625       1      44     226     234    1026     892     679+
+            893    1566    1110    1451
CTETRA       626       1     232     233     240    1026     677     698+
+            697    1157    1188    1517
CTETRA       627       1     234     235    1047    1026     681    1433+
+           1480    1451    1434    1435
CTETRA       628       1      44     234    1047    1026     893    1480+
+           1501    1566    1451    1435
CTETRA       629       1     245     246    1034    1047     712    1436+
+           1537    1503    1533    1444
CTETRA       630       1     198     199    1028    1030     583    1506+
+           1557    1131    1254    1149
CTETRA       631       1     271     272     279    1032     784     805+
+            804    1399    1531    1520
CTETRA       632       1     230     238     237    1026     691     690+
+            689    1528    1431    1410
CTETRA       633       1     245     246     253    1034     712     733+
+            732    1537    1436    1145
CTETRA       634       1       7     295       8     992     918     919+
+             16     996    1546     997
CTETRA       635       1     185     193     192    1041     568     567+
+            566    1234    1244    1230
CTETRA       636       1     175    1037     176    1042    1535    1500+
+            520    1414    1314    1415
CTETRA       637       1       5     292     293     991     913     841+
+            914     994    1540    1539
CTETRA       638       1     128     129     137    1021     390     414+
+            413    1069    1070    1473
CTETRA       639       1      53     162    1037    1020     875    1488+
+           1562    1319    1321    1283
CTETRA       640       1     126    1023     127    1021    1347    1448+
+            384    1349    1065    1439
CTETRA       641       1     181     182     189    1036     536     557+
+            556    1307    1308    1548
CTETRA       642       1     126     135     134    1021     407     406+
+            405    1349    1058    1422
CTETRA       643       1      56     137      57    1022     964     965+
+             69    1335    1570    1428
CTETRA       644       1     119     128     127    1023     388     387+
+            386    1235    1067    1448
CTETRA       645       1     115     123     122    1023     374     373+
+            372    1440    1062    1073
CTETRA       646       1     133     134     142    1022     403     427+
+            426    1057    1423    1352
CTETRA       647       1     155     163     162    1020     484     483+
+            482    1467    1270    1321
CTETRA       648       1     198     199     206    1028     583     604+
+            603    1557    1506    1114
CTETRA       649       1     136    1021     137    1022    1059    1473+
+            412    1061    1056    1570
CTETRA       650       1     134    1021     135    1022    1422    1058+
+            406    1423    1056    1060
CTETRA       651       1      57     137    1021    1022     965    1473+
+           1373    1428    1570    1056
CTETRA       652       1      57     129      58    1021     966     967+
+             68    1373    1070    1072
CTETRA       653       1      55     145      56    1044     962     963+
+             70    1568    1334    1333
CTETRA       654       1      55      56     138    1044      70     869+
+            870    1568    1333    1555
CTETRA       655       1     239     240    1047    1026     696    1536+
+           1558    1430    1517    1435
CTETRA       656       1     228     236     235    1026     685     684+
+            683    1085    1411    1434
CTETRA       657       1     219    1024     220    1025    1208    1173+
+            640    1450    1082    1174
CTETRA       658       1     220     228     227    1025     663     662+
+            661    1174    1086    1109
CTETRA       659       1     124     125     132    1021     379     400+
+            399    1066    1348    1053
CTETRA       660       1     235     243     242    1047     704     703+
+            702    1433    1418    1481
CTETRA       661       1     233     241     240    1026     700     699+
+            698    1188    1563    1517
CTETRA       662       1     246     254     253    1034     735     734+
+            733    1436    1160    1145
CTETRA       663       1     243     251     250    1034     726     725+
+            724    1549    1141    1329
CTETRA       664       1      44     241      45    1026     939     940+
+             81    1566    1563    1132
CTETRA       665       1      60      61      98    1039      65     859+
+            860    1259    1364    1260
CTETRA       666       1      54     146     154    1019     872     459+
+            873    1292    1298    1293
CTETRA       667       1      95    1009      96    1043    1309    1310+
+            322    1457    1277    1541
CTETRA       668       1      23      24      94    1009      33     982+
+            985    1012    1013    1437
CTETRA       669       1     285     286     293    1045     822     843+
+            842    1407    1403    1498
CTETRA       670       1      37      10     297     993     924     923+
+            925    1564    1001    1565
CTETRA       671       1       8     296       9     992     920     921+
+             17     997    1545    1003
CTETRA       672       1     195     196     203    1030     574     595+
+            594    1100    1099    1147
CTETRA       673       1      47      48     202    1028      78     885+
+            886    1169    1125    1119
CTETRA       674       1     246     247    1034    1047     715    1412+
+           1436    1533    1519    1444
CTETRA       675       1      42      43     242    1034      83     895+
+            896    1327    1331    1328
CTETRA       676       1      46     210     218    1024     888     635+
+            889    1079    1167    1561
CTETRA       677       1      45    1026     233    1025    1132    1188+
+            941    1133    1088    1192
CTETRA       678       1      40      41     258    1032      85     899+
+            900    1381    1163    1135
CTETRA       679       1     261     262     269    1033     756     777+
+            776    1326    1393    1395
CTETRA       680       1     248     249     256    1034     721     742+
+            741    1413    1339    1432
CTETRA       681       1     281     289     288    1046     832     831+
+            830    1524    1386    1379
CTETRA       682       1     211     212    1038    1028     618    1199+
+           1202    1201    1200    1204
CTETRA       683       1     283     284     291    1045     816     837+
+            836    1390    1389    1544
CTETRA       684       1      42    1033     257    1034    1332    1324+
+            935    1327    1143    1330
CTETRA       685       1     197     198    1028    1030     580    1557+
+           1507    1123    1131    1149
CTETRA       686       1     171     172    1035    1037     508    1181+
+           1184    1273    1189    1191
CTETRA       687       1      44    1047     241    1026    1501    1569+
+            939    1566    1435    1563
CTETRA       688       1     250     251    1033    1034     725    1140+
+           1210    1329    1141    1143
CTETRA       689       1     174     182    1036    1042     537    1308+
+           1306    1318    1239    1251
CTETRA       690       1     221    1024     229    1025    1083    1077+
+            666    1175    1082    1087
CTETRA       691       1     178     179     186    1036     527     548+
+            547    1247    1178    1287
CTETRA       692       1     187     195     194    1029     572     571+
+            570    1256    1255    1427
CTETRA       693       1     187    1036     188    1030    1478    1409+
+            552    1257    1267    1098
CTETRA       694       1     294     295     992    1045     847    1546+
+           1530    1497    1419    1547
CTETRA       695       1     293     294     992    1045     844    1530+
+           1529    1498    1497    1547
CTETRA       696       1      50      51     178    1036      75     879+
+            880    1286    1248    1247
CTETRA       697       1     127     136     135    1021     410     409+
+            408    1439    1059    1058
CTETRA       698       1       3     291       4     991     910     911+
+             12    1007    1512     995
CTETRA       699       1     158     159     166    1020     473     494+
+            493    1052    1421    1289
CTETRA       700       1     193    1041    1036    1030    1244    1302+
+           1264    1129    1232    1267
CTETRA       701       1       9     297      10     993     922     923+
+             18    1004    1565    1001
CTETRA       702       1     150     158     157    1019     471     470+
+            469    1493    1049    1048
CTETRA       703       1     170    1037    1035    1042    1312    1191+
+           1183    1315    1314    1301
CTETRA       704       1     138     139    1044    1022     417    1485+
+           1555    1370    1369    1336
CTETRA       705       1     116     117    1023    1040     356    1226+
+           1441    1538    1227    1224
CTETRA       706       1      55    1044     146    1019    1568    1296+
+            871    1469    1299    1298
CTETRA       707       1     116     117     124    1023     356     378+
+            377    1441    1226    1063
CTETRA       708       1     109    1039     110    1040    1463    1491+
+            337    1494    1218    1470
CTETRA       709       1      56     138    1044    1022     869    1555+
+           1333    1335    1370    1336
CTETRA       710       1     143     144     152    1044     431     455+
+            454    1350    1340    1453
CTETRA       711       1     155     156     163    1020     464     485+
+            484    1467    1268    1270
CTETRA       712       1     223     224     231    1031     652     673+
+            672    1105    1158    1106
CTETRA       713       1     118     127     126    1023     385     384+
+            383    1225    1448    1347
CTETRA       714       1      60    1039     106    1040    1259    1215+
+            861    1495    1218    1217
CTETRA       715       1     183     184     191    1041     542     563+
+            562    1237    1233    1229
CTETRA       716       1      58     121      59    1023     968     969+
+             67    1071    1242    1221
CTETRA       717       1      46    1024     218    1025    1079    1561+
+            889    1080    1082    1449
CTETRA       718       1     111    1039     112    1040    1446    1455+
+            343    1458    1218    1459
CTETRA       719       1     125     134     133    1021     404     403+
+            402    1348    1422    1054
CTETRA       720       1     237     238    1047    1026     690    1532+
+           1502    1410    1431    1435
CTETRA       721       1     260     268     267    1033     773     772+
+            771    1338    1214    1213
CTETRA       722       1      44     249     241    1047     938     722+
+            939    1501    1443    1569
CTETRA       723       1     240     241     248    1047     699     720+
+            719    1536    1569    1442
CTETRA       724       1     238     239    1047    1026     693    1558+
+           1532    1431    1430    1435
CTETRA       725       1      37      38     282    1045      88     905+
+            906    1518    1383    1387
CTETRA       726       1     991     992     993    1045    1000    1005+
+           1006    1514    1547    1515
CTETRA       727       1      54     161     153    1019     959     480+
+            960    1292    1482    1468
CTETRA       728       1      53     161      54    1020     958     959+
+             72    1319    1483    1294
CTETRA       729       1     169     177     176    1037     524     523+
+            522    1499    1554    1500
CTETRA       730       1     100     108     107    1039     333     332+
+            331    1360    1464    1216
CTETRA       731       1      94      95     103    1043     318     317+
+            316    1465    1457    1356
CTETRA       732       1     151     159     158    1019     474     473+
+            472    1486    1420    1049
CTETRA       733       1     158     166     165    1020     493     492+
+            491    1052    1289    1291
CTETRA       734       1       6     991     293     992     999    1539+
+            915     998    1000    1529
CTETRA       735       1     292     293     991    1045     841    1539+
+           1540    1438    1498    1514
CTETRA       736       1     291     292     991    1045     838    1540+
+           1512    1544    1438    1514
CTETRA       737       1     190    1036    1041    1030    1492    1302+
+           1304    1122    1267    1232
CTETRA       738       1      39     274    1046    1032     903    1551+
+           1523    1474    1560    1522
CTETRA       739       1     290     291     991    1045     835    1512+
+           1511    1513    1544    1514
CTETRA       740       1     262     263     270    1033     759     780+
+            779    1393    1445    1394
CTETRA       741       1      41     250     258    1033     898     745+
+            899    1165    1210    1136
CTETRA       742       1     271     279     278    1032     804     803+
+            802    1399    1520    1400
CTETRA       743       1      60     105      61    1039     972     973+
+             65    1259    1365    1364
CTETRA       744       1      98      99     106    1039     301     328+
+            327    1260    1362    1215
CTETRA       745       1     124     132     131    1021     399     398+
+            397    1066    1053    1516
CTETRA       746       1     242     243     250    1034     703     724+
+            723    1328    1549    1329
CTETRA       747       1     236     237     244    1047     687     708+
+            707    1416    1502    1417
$*
$* PROPERTY CARDS
$*
$*  Property: PSOLID1
PSOLID         1       1       0                           SMECH
$*
$* MATERIAL CARDS
$*
$*  Material: Isotropic::model3_fem1::[1]
MAT1           11.0000+5                  0.0000
$*
$* LOAD AND CONSTRAINT CARDS
$*
$*  Constraint: UserDefined(1)
SPC            1       1  123456  0.0000
SPC            1       3  123456  0.0000
SPC            1       4  123456  0.0000
SPC            1       5  123456  0.0000
SPC            1       6  123456  0.0000
SPC            1       7  123456  0.0000
SPC            1       8  123456  0.0000
SPC            1       9  123456  0.0000
SPC            1      10  123456  0.0000
SPC            1      11  123456  0.0000
SPC            1      12  123456  0.0000
SPC            1      13  123456  0.0000
SPC            1      14  123456  0.0000
SPC            1      15  123456  0.0000
SPC            1      16  123456  0.0000
SPC            1      17  123456  0.0000
SPC            1      18  123456  0.0000
SPC            1      19  123456  0.0000
$*  Load: Force(1)
FORCE          2      28       0 36.92941.000000  0.0000  0.0000
FORCE          2      29       0 36.90851.000000  0.0000  0.0000
FORCE          2      30       0 36.94271.000000  0.0000  0.0000
FORCE          2      31       0 37.02081.000000  0.0000  0.0000
FORCE          2      32       0 37.11791.000000  0.0000  0.0000
FORCE          2      33       0 37.18031.000000  0.0000  0.0000
FORCE          2      34       0 37.15731.000000  0.0000  0.0000
FORCE          2      35       0 37.08101.000000  0.0000  0.0000
FORCE          2      36       0 36.99561.000000  0.0000  0.0000
FORCE          2    1010       0 74.23821.000000  0.0000  0.0000
FORCE          2    1011       0 74.07651.000000  0.0000  0.0000
FORCE          2    1012       0 74.33751.000000  0.0000  0.0000
FORCE          2    1013       0 74.29821.000000  0.0000  0.0000
FORCE          2    1014       0 74.13871.000000  0.0000  0.0000
FORCE          2    1015       0 73.92501.000000  0.0000  0.0000
FORCE          2    1016       0 73.83791.000000  0.0000  0.0000
FORCE          2    1017       0 73.96341.000000  0.0000  0.0000
FORCE          2    1018       0 73.85121.000000  0.0000  0.0000
ENDDATA d4dfc58c
